 CONTCAR1
   1.000
   34.0000000000000000    0.0000000000000000    0.0000000000000000
    0.0000000000000000    5.8200001717000003    0.0000000000000000
    0.0000000000000000    0.0000000000000000   23.0000000000000000
   Mo   N    Si
   16   71   32
Selective Dynamics
Direct
    0.3755259238157228    0.0000000000000000    0.5034101746875331    F  F  F            Mo1
    0.3755264420548716    0.5000000000000000    0.5034100755093545    F  F  F            Mo2
    0.4510531111023754    0.2499846862588304    0.4988717379963593    F  F  F            Mo3
    0.4510531111023754    0.7500153337411720    0.4988717379963593    F  F  F            Mo4
    0.5221873343671388    0.0000000000000000    0.4993648317162663    T  T  T            Mo5
    0.5221842965789641    0.5000000000000000    0.4993645451658121    T  T  T            Mo6
    0.5948195016014169    0.2499243395696634    0.4994139679702816    T  T  T            Mo7
    0.5948195016014169    0.7500756804303385    0.4994139679702816    T  T  T            Mo8
    0.6683178857546577    0.0000000000000000    0.4995891549434472    T  T  T            Mo9
    0.6683004551227738    0.5000000000000000    0.4995895933547440    T  T  T           Mo10
    0.7423252084819625    0.2496427120461767    0.4997236547624088    T  T  T           Mo11
    0.7423252084819625    0.7503573079538249    0.4997236547624088    T  T  T           Mo12
    0.8167721706727029    0.0000000000000000    0.4998411204578568    T  T  T           Mo13
    0.8167594751132992    0.5000000000000000    0.4998413962674637    T  T  T           Mo14
    0.8934314613702929    0.2427708801257192    0.5000133813190536    T  T  T           Mo15
    0.8934314613702929    0.7572291398742823    0.5000133813190536    T  T  T           Mo16
    0.4049931773668033    0.2499935828554682    0.5488783343300427    F  F  F             N1
    0.4049931773668033    0.7500064371445330    0.5488783343300427    F  F  F             N2
    0.4022154923897640    0.2499933919168588    0.4527165659091303    F  F  F             N3
    0.4022154923897640    0.7500066280831428    0.4527165659091303    F  F  F             N4
    0.4169479667823603    0.0000000000000000    0.3515939871166608    F  F  F             N5
    0.4169473359816641    0.5000000000000000    0.3516119325735750    F  F  F             N6
    0.4166999275416318    0.0000000000000000    0.6488409587588948    F  F  F             N7
    0.4167003681839204    0.5000000000000000    0.6488299320751592    F  F  F             N8
    0.4734192372361566    0.0000000000000000    0.5542973083689638    F  F  F             N9
    0.4734175406153832    0.5000000000000000    0.5542940492260409    F  F  F            N10
    0.4734302170936404    0.0000000000000000    0.4441573559616177    F  F  F            N11
    0.4734274912307463    0.5000000000000000    0.4441616239042914    F  F  F            N12
    0.4933947939100077    0.2499831854166933    0.3465325848906965    F  F  F            N13
    0.4933947939100077    0.7500168345833087    0.3465325848906965    F  F  F            N14
    0.4930579762417560    0.2499794784746860    0.6520812211721079    F  F  F            N15
    0.4930579762417560    0.7500205415253161    0.6520812211721079    F  F  F            N16
    0.5458011117184169    0.2500064722739601    0.5539109530727993    T  T  T            N17
    0.5458011117184169    0.7499935477260417    0.5539109530727993    T  T  T            N18
    0.5458608606045199    0.2500061265529668    0.4447979994629583    T  T  T            N19
    0.5458608606045199    0.7499938934470348    0.4447979994629583    T  T  T            N20
    0.5682538084244652    0.0000000000000000    0.3469445696554143    T  T  T            N21
    0.5682350170994082    0.5000000000000000    0.3469571870899149    T  T  T            N22
    0.5678876245484116    0.0000000000000000    0.6517761283790725    T  T  T            N23
    0.5678698896169815    0.5000000000000000    0.6517613344327380    T  T  T            N24
    0.6189962518762295    0.0000000000000000    0.5537296520951315    T  T  T            N25
    0.6190050558505036    0.5000000000000000    0.5537026091415066    T  T  T            N26
    0.6191238502459627    0.0000000000000000    0.4452234025293644    T  T  T            N27
    0.6191328298330133    0.5000000000000000    0.4452479868314751    T  T  T            N28
    0.6426737341249361    0.2502063862103396    0.3474067689806651    T  T  T            N29
    0.6426737341249361    0.7497936337896625    0.3474067689806651    T  T  T            N30
    0.6423477265175702    0.2502062334908922    0.6516286218810452    T  T  T            N31
    0.6423477265175702    0.7497937865091095    0.6516286218810452    T  T  T            N32
    0.6927643347698070    0.2501084311255714    0.5536654242020175    T  T  T            N33
    0.6927643347698070    0.7498915888744300    0.5536654242020175    T  T  T            N34
    0.6928673339837446    0.2501099335993360    0.4456057699831237    T  T  T            N35
    0.6928673339837446    0.7498900864006655    0.4456057699831237    T  T  T            N36
    0.7166262799466520    0.0000000000000000    0.3477829513642061    T  T  T            N37
    0.7170931563634214    0.5000000000000000    0.3480008607404653    T  T  T            N38
    0.7163484462636754    0.0000000000000000    0.6515708853585483    T  T  T            N39
    0.7168135484992222    0.5000000000000000    0.6513438989413000    T  T  T            N40
    0.7667635247681548    0.0000000000000000    0.5535745562237394    T  T  T            N41
    0.7671723174476694    0.5000000000000000    0.5534342371094327    T  T  T            N42
    0.7668434228775027    0.0000000000000000    0.4459574230385380    T  T  T            N43
    0.7672541534621997    0.5000000000000000    0.4460867127492388    T  T  T            N44
    0.7907671606485730    0.2477111456157245    0.3484883972137341    T  T  T            N45
    0.7907671606485730    0.7522888743842772    0.3484883972137341    T  T  T            N46
    0.7905249371723714    0.2477085109188182    0.6510918909726965    T  T  T            N47
    0.7905249371723714    0.7522915090811834    0.6510918909726965    T  T  T            N48
    0.8415043701307028    0.2477961258229915    0.5530421270754904    T  T  T            N49
    0.8415043701307028    0.7522038941770105    0.5530421270754904    T  T  T            N50
    0.8415957008443057    0.2477933512756142    0.4467369027533193    T  T  T            N51
    0.8415957008443057    0.7522066687243875    0.4467369027533193    T  T  T            N52
    0.8664050582798954    0.0000000000000000    0.3474599018262308    T  T  T            N53
    0.8618514723370834    0.5000000000000000    0.3483490121999129    T  T  T            N54
    0.8661783244795520    0.0000000000000000    0.6523998843520884    T  T  T            N55
    0.8615908270934414    0.5000000000000000    0.6515378651603601    T  T  T            N56
    0.9153581026750141    0.0000000000000000    0.5568329444550509    T  T  T            N57
    0.9130066063374361    0.5000000000000000    0.5517051678956667    T  T  T            N58
    0.9154532314809544    0.0000000000000000    0.4432606598311372    T  T  T            N59
    0.9131039920032465    0.5000000000000000    0.4484611526592206    T  T  T            N60
    0.9361788580895489    0.2759360752148072    0.3440914321113527    T  T  T            N61
    0.9361788580895489    0.7240639447851946    0.3440914321113527    T  T  T            N62
    0.9359493731408542    0.2759260202899699    0.6561218321338335    T  T  T            N63
    0.9359493731408542    0.7240739997100315    0.6561218321338335    T  T  T            N64
    0.3564011618767506    0.0000000000000000    0.5891511162986489    F  F  F            N65
    0.3564021152346240    0.5000000000000000    0.5891639210106208    F  F  F            N66
    0.3557475123070374    0.0000000000000000    0.4051862351082149    F  F  F            N67
    0.3557503379761974    0.5000000000000000    0.4051776962569694    F  F  F            N68
    0.9680852010709599    0.6089684377368182    0.6852303711477663    T  T  T            N70
    0.9681462917935164    0.3910336399508183    0.3146223728790455    T  T  T            N71
    0.9681462917935164    0.6089663200491785    0.3146223728790455    T  T  T            N72
    0.3880824045494477    0.2500138133808801    0.6195612341979594    F  F  F            Si1
    0.3880824045494477    0.7499862066191212    0.6195612341979594    F  F  F            Si2
    0.3875558181841054    0.2500074507835956    0.3800884412050629    F  F  F            Si3
    0.3875558181841054    0.7499925692164063    0.3800884412050629    F  F  F            Si4
    0.4667232550413327    0.0000000000000000    0.6319345485845090    F  F  F            Si5
    0.4667269895816025    0.5000000000000000    0.6319288465005648    F  F  F            Si6
    0.4671636768728558    0.0000000000000000    0.3670445245678175    F  F  F            Si7
    0.4671674388713043    0.5000000000000000    0.3670500127705401    F  F  F            Si8
    0.5425144292024079    0.2499858462248669    0.6303316749481512    T  T  T            Si9
    0.5425144292024079    0.7500141737751348    0.6303316749481512    T  T  T           Si10
    0.5429069160163428    0.2499832197705103    0.3683666982327877    T  T  T           Si11
    0.5429069160163428    0.7500168002294911    0.3683666982327877    T  T  T           Si12
    0.6173652231840030    0.0000000000000000    0.6299887683736474    T  T  T           Si13
    0.6173250768839355    0.5000000000000000    0.6299603011458674    T  T  T           Si14
    0.6176892791457119    0.0000000000000000    0.3689683771386493    T  T  T           Si15
    0.6176497135160203    0.5000000000000000    0.3689895300118208    T  T  T           Si16
    0.6918132342559882    0.2503277285938734    0.6298562658831688    T  T  T           Si17
    0.6918132342559882    0.7496722914061285    0.6298562658831688    T  T  T           Si18
    0.6920845686701395    0.2503364937932614    0.3694161370687407    T  T  T           Si19
    0.6920845686701395    0.7496635262067399    0.3694161370687407    T  T  T           Si20
    0.7657402555655937    0.0000000000000000    0.6297072339684496    T  T  T           Si21
    0.7664838421539226    0.5000000000000000    0.6298408332431484    T  T  T           Si22
    0.7659719508649487    0.0000000000000000    0.3698253285357967    T  T  T           Si23
    0.7667155687817848    0.5000000000000000    0.3696715704579805    T  T  T           Si24
    0.8403013937974255    0.2448968383858845    0.6299632367380565    T  T  T           Si25
    0.8403013937974255    0.7551031816141172    0.6299632367380565    T  T  T           Si26
    0.8405094326459706    0.2449307792832744    0.3698025848623418    T  T  T           Si27
    0.8405094326459706    0.7550692407167268    0.3698025848623418    T  T  T           Si28
    0.9189457861391590    0.0000000000000000    0.6327920904827803    T  T  T           Si29
    0.9096694625698226    0.5000000000000000    0.6248886119015512    T  T  T           Si30
    0.9191234515035197    0.0000000000000000    0.3673047708709759    T  T  T           Si31
    0.9098674911821104    0.5000000000000000    0.3752694759116441    T  T  T           Si32
