CONTCAR1                                
   1.00000000000000     
     5.0399999619000004    0.0000000000000000    0.0000000000000000
     0.0000000000000000   30.0000000000000000    0.0000000000000000
     0.0000000000000000    0.0000000000000000   23.0000000000000000
   N    Si   Mo
    44    22    11
Direct
  0.1951521547300402  0.0567647039378538  0.5582425287978009
  0.1951498624098741  0.0567656311031331  0.4416473268807356
  0.1579934314992291  0.1566157578178248  0.5532544904580402
  0.1579932107275801  0.1566151263449025  0.4466386204700507
  0.3266966232089633  0.1101620458458490  0.3466604996962711
  0.3267076967095034  0.1101623915736385  0.6532318666219454
  0.6639771211377411  0.1080593784596635  0.5545251777878130
  0.6639766380384896  0.1080596420605881  0.4453677357672780
  0.1563384912697347  0.2547390221161049  0.5547470701570512
  0.1563348298542827  0.2547389354012057  0.4451457990536911
  0.3250222948444664  0.2065772903965587  0.3478135345746350
  0.3250489489752212  0.2065786027400970  0.6520793959078298
  0.6591566058626380  0.2062022400205281  0.5544726524140127
  0.6591502929624748  0.2062017342084590  0.4454185084839127
  0.1563384912697347  0.3519209948838981  0.5547470701570512
  0.1563348298542827  0.3519210815987973  0.4451457990536911
  0.3246033331183971  0.3033299450000015  0.3470569254192265
  0.3246382111225883  0.3033299450000015  0.6528333908114091
  0.6561188311357524  0.3033299450000015  0.5545723595200458
  0.6561130464783854  0.3033299450000015  0.4453141810463016
  0.1579934314992291  0.4500442431821696  0.5532544904580402
  0.1579932107275801  0.4500448746550922  0.4466386204700507
  0.3250222948444664  0.4000825996034373  0.3478135345746350
  0.3250489489752212  0.4000812872598990  0.6520793959078298
  0.6591566058626380  0.4004576499794679  0.5544726524140127
  0.6591502929624748  0.4004581557915370  0.4454185084839127
  0.1951521547300402  0.5498953200621465  0.5582425287978009
  0.1951498624098741  0.5498943928968667  0.4416473268807356
  0.3266966232089633  0.4964979781541511  0.3466604996962711
  0.3267076967095034  0.4964976324263615  0.6532318666219454
  0.6639771211377411  0.4986006455403366  0.5545251777878130
  0.6639766380384896  0.4986003819394120  0.4453677357672780
  0.8206596649866112  0.0601497826580678  0.3443125942442174
  0.8206735789586838  0.0601510450779585  0.6555780750152403
  0.8241785356966320  0.1578206503467606  0.3482215821225573
  0.8242002512460997  0.1578215853877554  0.6516724390834379
  0.8243588594788822  0.2548476764760043  0.3471979253508399
  0.8243809804556578  0.2548492345098610  0.6526934571833380
  0.8243588594788822  0.3518123405239987  0.3471979253508399
  0.8243809804556578  0.3518107824901420  0.6526934571833380
  0.8241785356966320  0.4488393506532339  0.3482215821225573
  0.8242002512460997  0.4488384156122390  0.6516724390834379
  0.8206596649866112  0.5465102413419319  0.3443125942442174
  0.8206735789586838  0.5465089789220415  0.6555780750152403
  0.1163507256633909  0.0680868685996203  0.6279262270659782
  0.1163368855207807  0.0680846704250688  0.3719597009518862
  0.1550735221666057  0.1584322016445258  0.6303782271339049
  0.1550516499932578  0.1584306676603892  0.3695170619882133
  0.6587320662580407  0.1063138861826110  0.6328736296682599
  0.6587129834771570  0.1063125579906281  0.3670179901540099
  0.1557952114054779  0.2549711808286012  0.6308577306167581
  0.1557731702535889  0.2549701744038383  0.3690354559143018
  0.6572647470528227  0.2060096496798002  0.6307633175956594
  0.6572335800295842  0.2060088110661959  0.3691276624385996
  0.1557952114054779  0.3516888361714018  0.6308577306167581
  0.1557731702535889  0.3516898425961646  0.3690354559143018
  0.6561472766885194  0.3033299450000015  0.6307479449598284
  0.6561115571505037  0.3033299450000015  0.3691381037902394
  0.1550735221666057  0.4482277993554686  0.6303782271339049
  0.1550516499932578  0.4482293333396052  0.3695170619882133
  0.6572647470528227  0.4006502403201956  0.6307633175956594
  0.6572335800295842  0.4006510789338000  0.3691276624385996
  0.1163507256633909  0.5385731554003795  0.6279262270659782
  0.1163368855207807  0.5385753535749310  0.3719597009518862
  0.6587320662580407  0.5003461378173891  0.6328736296682599
  0.6587129834771570  0.5003474660093721  0.3670179901540099
  0.9880982439941060  0.1059361548207832  0.4999460251771645
  0.4618043494605337  0.0647451834357298  0.4999436848277753
  0.9934006289695895  0.2062026873283760  0.4999464057480059
  0.5004228306091416  0.1575859891032783  0.4999460505811419
  0.9930384423943295  0.3033299450000015  0.4999454921843741
  0.4916596430489472  0.2545289806842493  0.4999453677019139
  0.9934006289695895  0.4004572026716199  0.4999464057480059
  0.4916596430489472  0.3521310363157537  0.4999453677019139
  0.9880982439941060  0.5007238691792167  0.4999460251771645
  0.5004228306091416  0.4490740118967163  0.4999460505811419
  0.4618043494605337  0.5419148405642700  0.4999436848277753
 
  0.00000000E+00  0.00000000E+00  0.00000000E+00
  0.00000000E+00  0.00000000E+00  0.00000000E+00
  0.00000000E+00  0.00000000E+00  0.00000000E+00
  0.00000000E+00  0.00000000E+00  0.00000000E+00
  0.00000000E+00  0.00000000E+00  0.00000000E+00
  0.00000000E+00  0.00000000E+00  0.00000000E+00
  0.00000000E+00  0.00000000E+00  0.00000000E+00
  0.00000000E+00  0.00000000E+00  0.00000000E+00
  0.00000000E+00  0.00000000E+00  0.00000000E+00
  0.00000000E+00  0.00000000E+00  0.00000000E+00
  0.00000000E+00  0.00000000E+00  0.00000000E+00
  0.00000000E+00  0.00000000E+00  0.00000000E+00
  0.00000000E+00  0.00000000E+00  0.00000000E+00
  0.00000000E+00  0.00000000E+00  0.00000000E+00
  0.00000000E+00  0.00000000E+00  0.00000000E+00
  0.00000000E+00  0.00000000E+00  0.00000000E+00
  0.00000000E+00  0.00000000E+00  0.00000000E+00
  0.00000000E+00  0.00000000E+00  0.00000000E+00
  0.00000000E+00  0.00000000E+00  0.00000000E+00
  0.00000000E+00  0.00000000E+00  0.00000000E+00
  0.00000000E+00  0.00000000E+00  0.00000000E+00
  0.00000000E+00  0.00000000E+00  0.00000000E+00
  0.00000000E+00  0.00000000E+00  0.00000000E+00
  0.00000000E+00  0.00000000E+00  0.00000000E+00
  0.00000000E+00  0.00000000E+00  0.00000000E+00
  0.00000000E+00  0.00000000E+00  0.00000000E+00
  0.00000000E+00  0.00000000E+00  0.00000000E+00
  0.00000000E+00  0.00000000E+00  0.00000000E+00
  0.00000000E+00  0.00000000E+00  0.00000000E+00
  0.00000000E+00  0.00000000E+00  0.00000000E+00
  0.00000000E+00  0.00000000E+00  0.00000000E+00
  0.00000000E+00  0.00000000E+00  0.00000000E+00
  0.00000000E+00  0.00000000E+00  0.00000000E+00
  0.00000000E+00  0.00000000E+00  0.00000000E+00
  0.00000000E+00  0.00000000E+00  0.00000000E+00
  0.00000000E+00  0.00000000E+00  0.00000000E+00
  0.00000000E+00  0.00000000E+00  0.00000000E+00
  0.00000000E+00  0.00000000E+00  0.00000000E+00
  0.00000000E+00  0.00000000E+00  0.00000000E+00
  0.00000000E+00  0.00000000E+00  0.00000000E+00
  0.00000000E+00  0.00000000E+00  0.00000000E+00
  0.00000000E+00  0.00000000E+00  0.00000000E+00
  0.00000000E+00  0.00000000E+00  0.00000000E+00
  0.00000000E+00  0.00000000E+00  0.00000000E+00
  0.00000000E+00  0.00000000E+00  0.00000000E+00
  0.00000000E+00  0.00000000E+00  0.00000000E+00
  0.00000000E+00  0.00000000E+00  0.00000000E+00
  0.00000000E+00  0.00000000E+00  0.00000000E+00
  0.00000000E+00  0.00000000E+00  0.00000000E+00
  0.00000000E+00  0.00000000E+00  0.00000000E+00
  0.00000000E+00  0.00000000E+00  0.00000000E+00
  0.00000000E+00  0.00000000E+00  0.00000000E+00
  0.00000000E+00  0.00000000E+00  0.00000000E+00
  0.00000000E+00  0.00000000E+00  0.00000000E+00
  0.00000000E+00  0.00000000E+00  0.00000000E+00
  0.00000000E+00  0.00000000E+00  0.00000000E+00
  0.00000000E+00  0.00000000E+00  0.00000000E+00
  0.00000000E+00  0.00000000E+00  0.00000000E+00
  0.00000000E+00  0.00000000E+00  0.00000000E+00
  0.00000000E+00  0.00000000E+00  0.00000000E+00
  0.00000000E+00  0.00000000E+00  0.00000000E+00
  0.00000000E+00  0.00000000E+00  0.00000000E+00
  0.00000000E+00  0.00000000E+00  0.00000000E+00
  0.00000000E+00  0.00000000E+00  0.00000000E+00
  0.00000000E+00  0.00000000E+00  0.00000000E+00
  0.00000000E+00  0.00000000E+00  0.00000000E+00
  0.00000000E+00  0.00000000E+00  0.00000000E+00
  0.00000000E+00  0.00000000E+00  0.00000000E+00
  0.00000000E+00  0.00000000E+00  0.00000000E+00
  0.00000000E+00  0.00000000E+00  0.00000000E+00
  0.00000000E+00  0.00000000E+00  0.00000000E+00
  0.00000000E+00  0.00000000E+00  0.00000000E+00
  0.00000000E+00  0.00000000E+00  0.00000000E+00
  0.00000000E+00  0.00000000E+00  0.00000000E+00
  0.00000000E+00  0.00000000E+00  0.00000000E+00
  0.00000000E+00  0.00000000E+00  0.00000000E+00
  0.00000000E+00  0.00000000E+00  0.00000000E+00
