CONTCAR1                                
   1.00000000000000     
     5.0399999619000004    0.0000000000000000    0.0000000000000000
     0.0000000000000000   41.0000000000000000    0.0000000000000000
     0.0000000000000000    0.0000000000000000   23.0000000000000000
   N    Si   Mo
    76    38    19
Direct
  0.1953029755502924  0.2454508410086283  0.5582301501585893
  0.1952886547534624  0.2454539295645792  0.4416512193895828
  0.1581392778152335  0.3185201276897715  0.5532663077974220
  0.1581400580951541  0.3185207881345186  0.4466224483352887
  0.3267430049842788  0.2845577838604789  0.3466518114246620
  0.3267586210511166  0.2845562557097931  0.6532300918664551
  0.6640268211843442  0.2830061720675326  0.5545189132295356
  0.6640196144932887  0.2830073949389533  0.4453685007215365
  0.1560973925483705  0.3903542167171012  0.5547281303280756
  0.1560921749832332  0.3903545668154254  0.4451662196436296
  0.3252586476740703  0.3551358287227963  0.3478346363026615
  0.3252735458494485  0.3551345503264801  0.6520564602001530
  0.6593977677486605  0.3548187381397964  0.5544590147225852
  0.6593909414377845  0.3548201436761365  0.4454327924957398
  0.1559443371744501  0.4613880732572888  0.5548677050136830
  0.1559390170194319  0.4613880314983890  0.4450318607112740
  0.3250245279350031  0.4259713153447948  0.3469534325770922
  0.3250486184779435  0.4259704450955060  0.6529463312063273
  0.6559105654399041  0.4258496738740655  0.5547126815874693
  0.6559053327532046  0.4258493855139277  0.4451858042321632
  0.1553809460163493  0.5323191700334573  0.5548281715018136
  0.1553670575018619  0.5323189963950602  0.4450657855070748
  0.3251055280100124  0.4968838208467238  0.3468275321165736
  0.3251527786107831  0.4968833163473870  0.6530701584284533
  0.6554163295378328  0.4968458080652782  0.5548565786799874
  0.6554116416695998  0.4968457812291556  0.4450387175341307
  0.1553475177928646  0.6032785459803091  0.5548243221477220
  0.1553354133051958  0.6032788059510440  0.4450663101975920
  0.3251251007625854  0.5677997375232193  0.3468704432234436
  0.3251522606253726  0.5678008137486471  0.6530233316171685
  0.6554205297095248  0.5677990312335510  0.5548438568909501
  0.6554178220646588  0.5677990725225823  0.4450469345164358
  0.1558429568969590  0.6742170109875690  0.5548553813890604
  0.1558481225174408  0.6742172727381321  0.4450429070209529
  0.3249939263989886  0.6387198421410203  0.3468400110915602
  0.3249937604611202  0.6387203857860904  0.6530538610634246
  0.6553266868653584  0.6387554823030922  0.5548462191632162
  0.6553312026421830  0.6387555089479745  0.4450462155203808
  0.1559816687922281  0.7452603206382081  0.5547272904852439
  0.1559819345347304  0.7452591353688298  0.4451678586055574
  0.3248628526941785  0.7096385110008184  0.3469697178878726
  0.3248316343254847  0.7096400078506416  0.6529289085340657
  0.6557914175737374  0.7097620915466071  0.5547024170036714
  0.6558013495246905  0.7097620690077312  0.4451932211381527
  0.1581063741109956  0.8170968191007442  0.5532648083752519
  0.1581087094382857  0.8170953818053005  0.4466224622680827
  0.3251267265105462  0.7804776806484258  0.3478334214288593
  0.3251103923309214  0.7804814846503995  0.6520592098188038
  0.6593077128311212  0.7807954741324389  0.5544612470146670
  0.6593128859772653  0.7807941170598925  0.4454303590079586
  0.1953053342538321  0.8901647342025982  0.5582282006327826
  0.1953077228811870  0.8901613821723650  0.4416486168810462
  0.3267171366253641  0.8510579636318314  0.3466484501043852
  0.3267128722017454  0.8510617814408187  0.6532332008255244
  0.6640047283318360  0.8526065767364397  0.5545121398189724
  0.6640042429467841  0.8526051871218261  0.4453700424231365
  0.8207185976061069  0.2479543464145175  0.3443425828288176
  0.8207399544043876  0.2479517924247243  0.6555446924379024
  0.8242877685067481  0.3194333140455849  0.3482014167662851
  0.8242993273040214  0.3194312553659364  0.6516895740224522
  0.8247700085840374  0.3904322521069931  0.3471371547916624
  0.8247878250435429  0.3904303612640722  0.6527567246470373
  0.8250053944014265  0.4613840360284339  0.3469103374891558
  0.8250424813619166  0.4613835442040873  0.6529901937675973
  0.8251467112368649  0.5323311653585814  0.3468564821291886
  0.8251842315896546  0.5323320202471765  0.6530360855460974
  0.8250794955684755  0.6032730035887051  0.3468600298934938
  0.8250946820472033  0.6032741927867697  0.6530285897694071
  0.8248633190308997  0.6742248531442331  0.3469319987553863
  0.8248396512995949  0.6742250366668375  0.6529651530724307
  0.8246077918892366  0.7451800358689196  0.3471414429494575
  0.8245817158116233  0.7451805361045865  0.6527512947963899
  0.8242266140889731  0.8161765959675444  0.3482035754509974
  0.8242126679203540  0.8161797555115076  0.6516851274000772
  0.8206665788675288  0.8876544615519871  0.3443485310001207
  0.8206721236916407  0.8876586210416979  0.6555281333169991
  0.1164331642689883  0.2537684757895226  0.6279027953661727
  0.1164379845524088  0.2537661672777049  0.3719756785707222
  0.1551664560310431  0.3198893759490245  0.6303851622696204
  0.1551658074494250  0.3198891121650239  0.3695021285756319
  0.6587868368223652  0.2817320782277866  0.6328688437765216
  0.6587705852141106  0.2817352136078801  0.3670192962815283
  0.1561665564702858  0.3905682790915754  0.6308383914812179
  0.1561474036094946  0.3905684706125020  0.3690550839910116
  0.6575261823383746  0.3546967443324155  0.6307461246783163
  0.6575098384720089  0.3546990884552668  0.3691460784456887
  0.1565583766822312  0.4614287989662965  0.6309810051427993
  0.1565199901614215  0.4614296222550126  0.3689195971355036
  0.6565463896283762  0.4258846633871275  0.6308595099778471
  0.6565207083043664  0.4258857159362482  0.3690416479848093
  0.1566208095472504  0.5323366769396358  0.6309431420437054
  0.1565747551268301  0.5323375622481934  0.3689518132264416
  0.6565988546688626  0.4968588527370299  0.6309712902919641
  0.6565479824819768  0.4968599906889768  0.3689249527399870
  0.1565233017299362  0.6032590763431496  0.6309367625277533
  0.1565081935868705  0.6032587650046888  0.3689529644354319
  0.6565964982962275  0.5677995761558529  0.6309552012724690
  0.6565749761550297  0.5677999596807463  0.3689352368343335
  0.1563559924413376  0.6741757702801855  0.6309633846658813
  0.1563828162434695  0.6741755032618347  0.3689357120926627
  0.6564258949943913  0.6387440322979956  0.6309555322337685
  0.6564349435444672  0.6387444597765890  0.3689371039432797
  0.1559621643392377  0.7450491523778426  0.6308381553035239
  0.1559884397553033  0.7450470631508576  0.3690564945219601
  0.6563217250899716  0.7097279409376857  0.6308417657996532
  0.6563558817808378  0.7097288243826442  0.3690543864390368
  0.1551225245493607  0.8157346499338232  0.6303856220373319
  0.1551414837928770  0.8157302987425000  0.3695034472205387
  0.6573460128967240  0.7809152199370680  0.6307488844326905
  0.6573574889884590  0.7809147517351402  0.3691416842523646
  0.1164016423942140  0.8818524441220590  0.6279006708288566
  0.1164044719691441  0.8818510580447650  0.3719755978705146
  0.6587447087996703  0.8538727754951130  0.6328580617983041
  0.6587485821002600  0.8538684967657613  0.3670225681546380
  0.9882030977536722  0.2814377381208020  0.4999426046051459
  0.4620578970436641  0.2512912664547897  0.4999408097893505
  0.9935802383613092  0.3547905186505998  0.4999461450912343
  0.5004718840453487  0.3192440010862598  0.4999450663954360
  0.9919593228191419  0.4258772974415947  0.4999495191488742
  0.4916277526941414  0.3901874527246619  0.4999485828237226
  0.9906607984456187  0.4968211639163638  0.4999495063389192
  0.4908973747968433  0.4613749691182902  0.4999496622069550
  0.9905221937792059  0.5677989504441542  0.4999470271072305
  0.4906714907281231  0.5323262862450141  0.4999475652284638
  0.9905981766540608  0.6387786798935745  0.4999474246348797
  0.4906282833415033  0.6032719468139425  0.4999458679461335
  0.9918582279637976  0.7097325199334454  0.4999493638792402
  0.4908108004295690  0.6742315651149687  0.4999482169870726
  0.9935067132272689  0.7808249321815343  0.4999465093530404
  0.4915269622866361  0.7454262018836076  0.4999480123081581
  0.9882045286772237  0.8541781645342553  0.4999409777503706
  0.5004337604236465  0.8163695887670178  0.4999439865993747
  0.4620621967553181  0.8843228640365278  0.4999394875230007
 
  0.00000000E+00  0.00000000E+00  0.00000000E+00
  0.00000000E+00  0.00000000E+00  0.00000000E+00
  0.00000000E+00  0.00000000E+00  0.00000000E+00
  0.00000000E+00  0.00000000E+00  0.00000000E+00
  0.00000000E+00  0.00000000E+00  0.00000000E+00
  0.00000000E+00  0.00000000E+00  0.00000000E+00
  0.00000000E+00  0.00000000E+00  0.00000000E+00
  0.00000000E+00  0.00000000E+00  0.00000000E+00
  0.00000000E+00  0.00000000E+00  0.00000000E+00
  0.00000000E+00  0.00000000E+00  0.00000000E+00
  0.00000000E+00  0.00000000E+00  0.00000000E+00
  0.00000000E+00  0.00000000E+00  0.00000000E+00
  0.00000000E+00  0.00000000E+00  0.00000000E+00
  0.00000000E+00  0.00000000E+00  0.00000000E+00
  0.00000000E+00  0.00000000E+00  0.00000000E+00
  0.00000000E+00  0.00000000E+00  0.00000000E+00
  0.00000000E+00  0.00000000E+00  0.00000000E+00
  0.00000000E+00  0.00000000E+00  0.00000000E+00
  0.00000000E+00  0.00000000E+00  0.00000000E+00
  0.00000000E+00  0.00000000E+00  0.00000000E+00
  0.00000000E+00  0.00000000E+00  0.00000000E+00
  0.00000000E+00  0.00000000E+00  0.00000000E+00
  0.00000000E+00  0.00000000E+00  0.00000000E+00
  0.00000000E+00  0.00000000E+00  0.00000000E+00
  0.00000000E+00  0.00000000E+00  0.00000000E+00
  0.00000000E+00  0.00000000E+00  0.00000000E+00
  0.00000000E+00  0.00000000E+00  0.00000000E+00
  0.00000000E+00  0.00000000E+00  0.00000000E+00
  0.00000000E+00  0.00000000E+00  0.00000000E+00
  0.00000000E+00  0.00000000E+00  0.00000000E+00
  0.00000000E+00  0.00000000E+00  0.00000000E+00
  0.00000000E+00  0.00000000E+00  0.00000000E+00
  0.00000000E+00  0.00000000E+00  0.00000000E+00
  0.00000000E+00  0.00000000E+00  0.00000000E+00
  0.00000000E+00  0.00000000E+00  0.00000000E+00
  0.00000000E+00  0.00000000E+00  0.00000000E+00
  0.00000000E+00  0.00000000E+00  0.00000000E+00
  0.00000000E+00  0.00000000E+00  0.00000000E+00
  0.00000000E+00  0.00000000E+00  0.00000000E+00
  0.00000000E+00  0.00000000E+00  0.00000000E+00
  0.00000000E+00  0.00000000E+00  0.00000000E+00
  0.00000000E+00  0.00000000E+00  0.00000000E+00
  0.00000000E+00  0.00000000E+00  0.00000000E+00
  0.00000000E+00  0.00000000E+00  0.00000000E+00
  0.00000000E+00  0.00000000E+00  0.00000000E+00
  0.00000000E+00  0.00000000E+00  0.00000000E+00
  0.00000000E+00  0.00000000E+00  0.00000000E+00
  0.00000000E+00  0.00000000E+00  0.00000000E+00
  0.00000000E+00  0.00000000E+00  0.00000000E+00
  0.00000000E+00  0.00000000E+00  0.00000000E+00
  0.00000000E+00  0.00000000E+00  0.00000000E+00
  0.00000000E+00  0.00000000E+00  0.00000000E+00
  0.00000000E+00  0.00000000E+00  0.00000000E+00
  0.00000000E+00  0.00000000E+00  0.00000000E+00
  0.00000000E+00  0.00000000E+00  0.00000000E+00
  0.00000000E+00  0.00000000E+00  0.00000000E+00
  0.00000000E+00  0.00000000E+00  0.00000000E+00
  0.00000000E+00  0.00000000E+00  0.00000000E+00
  0.00000000E+00  0.00000000E+00  0.00000000E+00
  0.00000000E+00  0.00000000E+00  0.00000000E+00
  0.00000000E+00  0.00000000E+00  0.00000000E+00
  0.00000000E+00  0.00000000E+00  0.00000000E+00
  0.00000000E+00  0.00000000E+00  0.00000000E+00
  0.00000000E+00  0.00000000E+00  0.00000000E+00
  0.00000000E+00  0.00000000E+00  0.00000000E+00
  0.00000000E+00  0.00000000E+00  0.00000000E+00
  0.00000000E+00  0.00000000E+00  0.00000000E+00
  0.00000000E+00  0.00000000E+00  0.00000000E+00
  0.00000000E+00  0.00000000E+00  0.00000000E+00
  0.00000000E+00  0.00000000E+00  0.00000000E+00
  0.00000000E+00  0.00000000E+00  0.00000000E+00
  0.00000000E+00  0.00000000E+00  0.00000000E+00
  0.00000000E+00  0.00000000E+00  0.00000000E+00
  0.00000000E+00  0.00000000E+00  0.00000000E+00
  0.00000000E+00  0.00000000E+00  0.00000000E+00
  0.00000000E+00  0.00000000E+00  0.00000000E+00
  0.00000000E+00  0.00000000E+00  0.00000000E+00
  0.00000000E+00  0.00000000E+00  0.00000000E+00
  0.00000000E+00  0.00000000E+00  0.00000000E+00
  0.00000000E+00  0.00000000E+00  0.00000000E+00
  0.00000000E+00  0.00000000E+00  0.00000000E+00
  0.00000000E+00  0.00000000E+00  0.00000000E+00
  0.00000000E+00  0.00000000E+00  0.00000000E+00
  0.00000000E+00  0.00000000E+00  0.00000000E+00
  0.00000000E+00  0.00000000E+00  0.00000000E+00
  0.00000000E+00  0.00000000E+00  0.00000000E+00
  0.00000000E+00  0.00000000E+00  0.00000000E+00
  0.00000000E+00  0.00000000E+00  0.00000000E+00
  0.00000000E+00  0.00000000E+00  0.00000000E+00
  0.00000000E+00  0.00000000E+00  0.00000000E+00
  0.00000000E+00  0.00000000E+00  0.00000000E+00
  0.00000000E+00  0.00000000E+00  0.00000000E+00
  0.00000000E+00  0.00000000E+00  0.00000000E+00
  0.00000000E+00  0.00000000E+00  0.00000000E+00
  0.00000000E+00  0.00000000E+00  0.00000000E+00
  0.00000000E+00  0.00000000E+00  0.00000000E+00
  0.00000000E+00  0.00000000E+00  0.00000000E+00
  0.00000000E+00  0.00000000E+00  0.00000000E+00
  0.00000000E+00  0.00000000E+00  0.00000000E+00
  0.00000000E+00  0.00000000E+00  0.00000000E+00
  0.00000000E+00  0.00000000E+00  0.00000000E+00
  0.00000000E+00  0.00000000E+00  0.00000000E+00
  0.00000000E+00  0.00000000E+00  0.00000000E+00
  0.00000000E+00  0.00000000E+00  0.00000000E+00
  0.00000000E+00  0.00000000E+00  0.00000000E+00
  0.00000000E+00  0.00000000E+00  0.00000000E+00
  0.00000000E+00  0.00000000E+00  0.00000000E+00
  0.00000000E+00  0.00000000E+00  0.00000000E+00
  0.00000000E+00  0.00000000E+00  0.00000000E+00
  0.00000000E+00  0.00000000E+00  0.00000000E+00
  0.00000000E+00  0.00000000E+00  0.00000000E+00
  0.00000000E+00  0.00000000E+00  0.00000000E+00
  0.00000000E+00  0.00000000E+00  0.00000000E+00
  0.00000000E+00  0.00000000E+00  0.00000000E+00
  0.00000000E+00  0.00000000E+00  0.00000000E+00
  0.00000000E+00  0.00000000E+00  0.00000000E+00
  0.00000000E+00  0.00000000E+00  0.00000000E+00
  0.00000000E+00  0.00000000E+00  0.00000000E+00
  0.00000000E+00  0.00000000E+00  0.00000000E+00
  0.00000000E+00  0.00000000E+00  0.00000000E+00
  0.00000000E+00  0.00000000E+00  0.00000000E+00
  0.00000000E+00  0.00000000E+00  0.00000000E+00
  0.00000000E+00  0.00000000E+00  0.00000000E+00
  0.00000000E+00  0.00000000E+00  0.00000000E+00
  0.00000000E+00  0.00000000E+00  0.00000000E+00
  0.00000000E+00  0.00000000E+00  0.00000000E+00
  0.00000000E+00  0.00000000E+00  0.00000000E+00
  0.00000000E+00  0.00000000E+00  0.00000000E+00
  0.00000000E+00  0.00000000E+00  0.00000000E+00
  0.00000000E+00  0.00000000E+00  0.00000000E+00
  0.00000000E+00  0.00000000E+00  0.00000000E+00
  0.00000000E+00  0.00000000E+00  0.00000000E+00
  0.00000000E+00  0.00000000E+00  0.00000000E+00
