CONTCAR1                                
   1.00000000000000     
    34.0000000000000000    0.0000000000000000    0.0000000000000000
     0.0000000000000000    8.7300004959000006    0.0000000000000000
     0.0000000000000000    0.0000000000000000   23.0000000000000000
   Zr  Mo   N    Si
   1   23   104    48
Direct
  0.3755266390843755  0.3333520983109387  0.5000680797712590
  0.3771632790212298  0.0012574442791368  0.4888524342813362
  0.3771583197600639  0.6654864555308319  0.5113487968972087
  0.4505673479527220  0.1656706896068588  0.5008417319546505
  0.4505684920851759  0.5010244632843415  0.4992348035734299
  0.4491477933214040  0.8333603692532415  0.5000402068286004
  0.5224627811799260 -0.0005323464411972  0.5004641424155990
  0.5228201629820765  0.3333346511596427  0.4999854988502052
  0.5224618387760215  0.6672202923391611  0.4995130170669186
  0.5960210047504785  0.1664485597023452  0.5001813811930341
  0.5960200568892569  0.5002193080376942  0.4997169939915033
  0.5958990500876595  0.8333428370070638  0.4999512372729376
  0.6698534880127155 -0.0000835941223718  0.4999882769276380
  0.6698602926487471  0.3333294951052145  0.4999303539202399
  0.6698513826294046  0.6667584287072906  0.4998716177723580
  0.7440485654137142  0.1667736315004060  0.4998812207797020
  0.7440491131948694  0.4998949700213837  0.4999736215983540
  0.7440658319618656  0.8333247317875091  0.4999263653604209
  0.8186073554187665  0.0003462204557783  0.4994097772806870
  0.8187517662058084  0.3333150492858549  0.4999405579811245
  0.8186085975721742  0.6662969204625160  0.5004766824454246
  0.8949177113705833  0.1683903978907544  0.4972147502648673
  0.8949170383463853  0.4982311443591999  0.5027087249989688
  0.8943918117511772  0.8333184300485811  0.4999700209970421
  0.3986845670831691  0.1516649524998260  0.5467736156651147
  0.4048528137852075  0.4984802663734315  0.5515050373681197
  0.3997102567397708  0.8476075050648041  0.5509618556276492
  0.4048253944004599  0.1681201540707602  0.4486229567460848
  0.3986654643055420  0.5150963971405360  0.4533899173705113
  0.3996795335100657  0.8192054791263790  0.4491877838687142
  0.4231846537556911  0.0081873467781509  0.3478295401505554
  0.4221347976040671  0.3290605474224462  0.3484820379747029
  0.4146641762193446  0.6663499522223246  0.3517606959049020
  0.4147389861530238  0.0003556089768047  0.6483632311330682
  0.4222216557587902  0.3376347516907184  0.6516463719440775
  0.4232483847293744  0.6584945522465033  0.6522834081991077
  0.4726214671542548 -0.0009452079433492  0.5551105964949249
  0.4739010621494074  0.3340694409734136  0.5546480452652984
  0.4736735921173281  0.6667740352481825  0.5543710599392213
  0.4736475060028496 -0.0000748700873284  0.4456740526388011
  0.4738725039809512  0.3326213106571609  0.4453929191286591
  0.4725861509131646  0.6676525667752413  0.4449351397602166
  0.4972006507301540  0.1673693160858495  0.3474757758247917
  0.4947488648589733  0.5024560306867726  0.3475134994758798
  0.4949398458115938  0.8314580203807944  0.3474894581559688
  0.4948165005173514  0.1642391114430521  0.6525030501276248
  0.4972593992544070  0.4993269320288304  0.6525339153156843
  0.4950015463062044  0.8352393359597671  0.6525333431497274
  0.5466413099155207  0.1663702431013892  0.5546389402573459
  0.5469592980031691  0.5005899751727998  0.5540060064517336
  0.5465428861167081  0.8329001359889262  0.5544682014595503
  0.5469420747736645  0.1660699475509577  0.4459382099532478
  0.5466175736368389  0.5003126490686320  0.4453168686856224
  0.5465200875841878  0.8337782688513226  0.4454888016636969
  0.5701070138676800 -0.0010135466193985  0.3477763274571339
  0.5701104563639311  0.3347691844613335  0.3477821285650317
  0.5699844821220887  0.6668473252865383  0.3474286267260504
  0.5700337464184814 -0.0001833627947783  0.6525024291708627
  0.5701580593563215  0.3319061516437435  0.6521509341589892
  0.5701485502443099  0.6676368336267602  0.6521440476385707
  0.6204228436454831 -0.0002715078876301  0.5543421490154219
  0.6204746015511621  0.3334559470898135  0.5541837015871793
  0.6204402348628689  0.6667541391204532  0.5541219539542275
  0.6204265605552602 -0.0000830162218289  0.4457575383266077
  0.6204605897874732  0.3332097837661324  0.4456970219737504
  0.6204038720098625  0.6669528518073620  0.4455403753008790
  0.6441546969517047  0.1667766431110934  0.3477513725276624
  0.6443669500216327  0.5003497416374062  0.3476637842799969
  0.6443620564957081  0.8332576256665404  0.3476296154123866
  0.6443923438461655  0.1663234276700356  0.6522127639073818
  0.6441842383892044  0.4998872859498377  0.6521127186962768
  0.6443826242733660  0.8334057583762995  0.6522381835312223
  0.6944786369556610  0.1666487736914428  0.5541131904282292
  0.6944144169612451  0.5000277056850200  0.5541098672155020
  0.6944835018656721  0.8332689798396958  0.5541333679004042
  0.6944117708332540  0.1666385659824954  0.4457288825717647
  0.6944754275445115  0.5000109908997655  0.4457340945545011
  0.6944810608910198  0.8334097968161844  0.4457072990347267
  0.7182839401590736  0.0003962403933258  0.3476772753794303
  0.7183458929188173  0.3331913504427699  0.3478043964472942
  0.7184270129140826  0.6667203890329146  0.3478592998845599
  0.7184268411237755 -0.0000648014324542  0.6519950096448436
  0.7183541748559992  0.3334726569596093  0.6520419122409588
  0.7182923318961538  0.6662702625933155  0.6521605462525059
  0.7688354132225635  0.0001561910651345  0.5537308676672666
  0.7687781554702088  0.3333451377891035  0.5539457144644793
  0.7686502968857051  0.6664038394920259  0.5541664398985693
  0.7686484893894640  0.0002463811361537  0.4456888701977659
  0.7687807722387201  0.3333362687707798  0.4459066146402661
  0.7688443258933652  0.6664921537534473  0.4461187158112880
  0.7924403515266939  0.1668991945648592  0.3477258540474105
  0.7920809270035040  0.4997521263330014  0.3485803364647425
  0.7918958905928083  0.8338193729102572  0.3481265337072404
  0.7920615809857179  0.1669017586856892  0.6512714329212566
  0.7924372585622407  0.4997758245045676  0.6521519821341755
  0.7918833211533784  0.8328482406782157  0.6517527780102053
  0.8437314418147619  0.1662134895638219  0.5524910151214119
  0.8434263828865823  0.4992423929784954  0.5546842293042243
  0.8432040009586855  0.8342123573554908  0.5534373634184365
  0.8434354901306548  0.1673776742760869  0.4452038987449765
  0.8437378755475808  0.5004141821550296  0.4474010220107056
  0.8432168272196744  0.8324396605679549  0.4464683796907963
  0.8660134972587671 -0.0021861596673605  0.3463631253780987
  0.8661235992992113  0.3364354396359037  0.3469893982506926
  0.8642563946674124  0.6667564299632084  0.3483143870955558
  0.8642337251843835 -0.0001252256230406  0.6516193491907204
  0.8661041100003138  0.3301647374009677  0.6529160450197351
  0.8659944285530340  0.6688151822848457  0.6535492920285064
  0.9183411801591937  0.0021640498537165  0.5505992175146391
  0.9166093176588642  0.3248716142463171  0.5552934300428531
  0.9170203616960828  0.6757266597176234  0.5565031624210162
  0.9170354975113562 -0.0090751004943537  0.4434414452140329
  0.9166181657697108  0.3417720013667159  0.4446382273417877
  0.9183637071637860  0.6644691324532642  0.4493654662518368
  0.9388230839496855  0.1677357868615092  0.3408632895396603
  0.9382123168825736  0.5163285801835060  0.3407312197083750
  0.9381025394699726  0.8177413113820490  0.3401961766300933
  0.9382008062049768  0.1503061823417499  0.6592303054654446
  0.9388014192651118  0.4989028451683139  0.6590827011951790
  0.9380882926829910  0.8488822352056216  0.6597688138272676
  0.3577295533696965  0.3256561207053967  0.5982822955310944
  0.3569057497442099  0.6693257986787204  0.6064965563654275
  0.3568253103916205 -0.0026154229800836  0.3935791626495631
  0.3576992338879991  0.3410541913498776  0.4020184387320385
  0.9645133739715679  0.1163042587314822  0.6916944415687488
  0.9642846792720173  0.8837216388497308  0.6923786386818533
  0.9642983258921694 -0.2171122731040813  0.3075880439496621
  0.9645286801706147  0.5503623917851364  0.3082598754307719
  0.3948889334997062  0.1886021908189985  0.6213085815818602
  0.3889242486093779  0.4982656690538484  0.6234427700654183
  0.3949084902903882  0.8073897164290608  0.6248161507138129
  0.3888579835370633  0.1682629511228122  0.3767086887476525
  0.3948473538652827  0.4781723502458441  0.3788511724513856
  0.3948275303569460  0.8593925629364697  0.3753316317744185
  0.4675014254103450 -0.0004782750122536  0.6319794716872428
  0.4710102605215726  0.3352216541126151  0.6322199116453837
  0.4715235850094741  0.6640593648857098  0.6319514196930968
  0.4714717088450496  0.0026518630742729  0.3680923402643221
  0.4709507599160365  0.3314744585539537  0.3678165723534418
  0.4674342862808955  0.6671846524610999  0.3680674985369864
  0.5446695008024935  0.1652459769562485  0.6308129683089770
  0.5460352095685704  0.4996539223770086  0.6301618830103957
  0.5447615240769158  0.8344099017254961  0.6307214703993916
  0.5460004686586252  0.1669595113936674  0.3697720307350527
  0.5446183453804344  0.5014423950765937  0.3691414884975934
  0.5447107712402960  0.8322381826332987  0.3692291330823018
  0.6195180999310976 -0.0001460804084031  0.6303753253514460
  0.6195891351771627  0.3326057489245085  0.6302156023076062
  0.6195803248386225  0.6671400389152501  0.6301950378041675
  0.6195526079950672 -0.0004849101049883  0.3696891752608464
  0.6195558822419969  0.3340683964365528  0.3696690546099452
  0.6194848871986777  0.6668208057464716  0.3695125614468605
  0.6937653510665405  0.1665842219590460  0.6300812689463335
  0.6936001877441189  0.4998866809173164  0.6300896571655218
  0.6937564637093641  0.8332134986972654  0.6301199455639673
  0.6935792980386184  0.1667546115530946  0.3697488676486481
  0.6937533743647752  0.5000664346246899  0.3697682745474239
  0.6937458046794130  0.8334667489217391  0.3697208899942840
  0.7676458531165444 -0.0001227744234841  0.6296170360833822
  0.7676858710493055  0.3340439934269922  0.6298809188346185
  0.7676281043945191  0.6656588466828806  0.6301140955885094
  0.7676205316841741  0.0010005904742937  0.3697506618355491
  0.7676815854409331  0.3326909438862379  0.3699759795645332
  0.7676599425548792  0.6667468465036175  0.3702345294070020
  0.8410139508880257  0.1696199143499803  0.6285724074191242
  0.8422841131643809  0.4996610822848017  0.6315221395936093
  0.8408998584194562  0.8297219799972473  0.6294451435836786
  0.8422910453023048  0.1669476641446944  0.3683593555113364
  0.8410330344383257  0.4969668583420009  0.3713167956223613
  0.8409131952707491  0.8369255797306706  0.3704635013141780
  0.9100823772672600 -0.0006253237017930  0.6208687994037656
  0.9162541902553596  0.3517900284708425  0.6292670112875608
  0.9162962384455294  0.6473511039370141  0.6300453579632562
  0.9163113053648847  0.0193125108656719  0.3698906938647065
  0.9162725913476186  0.3148402323551837  0.3706644972100308
  0.9100983122113463  0.6672375830476101  0.3790923245286400
