CONTCAR1                                
   1.00000000000000     
    39.0000000000000000    0.0000000000000000    0.0000000000000000
     0.0000000000000000    2.9100000858000001    0.0000000000000000
     0.0000000000000000    0.0000000000000000   23.0000000000000000
   Mo   N    Si
    10    40    20
Direct
  0.0664687576988271  0.0000000000000000  0.4999572341137433
  0.1300535595553275  0.5000000000000000  0.4999599502767765
  0.1955485850069951  0.0000000000000000  0.4999569424093534
  0.2605707268211645  0.5000000000000000  0.4999489175323830
  0.3253293304363849  0.0000000000000000  0.4999404260091929
  0.3899741021502587  0.5000000000000000  0.4999441995388010
  0.4545930331578495  0.0000000000000000  0.4999435996580240
  0.5192956095514284  0.5000000000000000  0.4999401374311074
  0.5841200425900692  0.0000000000000000  0.4999402118578926
  0.6507944134953710  0.5000000000000000  0.4999414021598882
  0.0851839930105973  0.5000000000000000  0.5553251546907543
  0.0851833640780916  0.5000000000000000  0.4445877223310782
  0.1107149357476311  0.0000000000000000  0.3477314156075285
  0.1107152623727241  0.0000000000000000  0.6521836989893131
  0.1520922301203893  0.0000000000000000  0.5535736268753590
  0.1520913724736258  0.0000000000000000  0.4463414787616744
  0.1749759835918124  0.5000000000000000  0.3485302551197039
  0.1749787541831201  0.5000000000000000  0.6513825679933921
  0.2173309972097467  0.5000000000000000  0.5538513480277377
  0.2173277644706511  0.5000000000000000  0.4460492661703354
  0.2394428350099812  0.0000000000000000  0.3480727296403505
  0.2394460306997687  0.0000000000000000  0.6518282582712354
  0.2821698653088293  0.0000000000000000  0.5540629166301617
  0.2821678010707992  0.0000000000000000  0.4458231038600047
  0.3040070265375766  0.5000000000000000  0.3478232546136280
  0.3040093114347369  0.5000000000000000  0.6520586880958432
  0.3468463431609232  0.5000000000000000  0.5541395298802685
  0.3468470984236481  0.5000000000000000  0.4457391412933953
  0.3685836754228591  0.0000000000000000  0.3477350418325064
  0.3685842559206635  0.0000000000000000  0.6521459349673786
  0.4114605009341371  0.0000000000000000  0.5541446522886490
  0.4114598066362996  0.0000000000000000  0.4457449198245903
  0.4331629488959337  0.5000000000000000  0.3477838568460510
  0.4331659215498295  0.5000000000000000  0.6521053433970021
  0.4760834879236925  0.5000000000000000  0.5540467294286383
  0.4760816314479872  0.5000000000000000  0.4458308802069435
  0.4977469513312403  0.0000000000000000  0.3480275830908081
  0.4977489633088050  0.0000000000000000  0.6518509709463427
  0.5408231186920163  0.0000000000000000  0.5537161617300954
  0.5408224321956024  0.0000000000000000  0.4461575925246303
  0.5621750030634870  0.5000000000000000  0.3487464860389403
  0.5621753679979024  0.5000000000000000  0.6511332895396527
  0.6057291373698770  0.5000000000000000  0.5531245986885006
  0.6057307880638627  0.5000000000000000  0.4467541183379368
  0.6261341866618783  0.0000000000000000  0.3480962199143610
  0.6261324667887483  0.0000000000000000  0.6517846149384500
  0.6679388035135989  0.0000000000000000  0.5544219364383499
  0.6679421386684230  0.0000000000000000  0.4454643448908094
  0.6895040130100526  0.5000000000000000  0.3474061572836942
  0.6895029301061915  0.5000000000000000  0.6524791493178682
  0.0878309153080073  0.5000000000000000  0.6324064772381198
  0.0878295115062082  0.5000000000000000  0.3675057888852417
  0.1533752464088263  0.0000000000000000  0.6299364804899629
  0.1533720427302033  0.0000000000000000  0.3699810738846702
  0.2180452146055994  0.5000000000000000  0.6299245706918329
  0.2180418083410280  0.5000000000000000  0.3699802950673687
  0.2826437875657086  0.0000000000000000  0.6300588344979100
  0.2826435455533381  0.0000000000000000  0.3698294014661287
  0.3472358256480598  0.5000000000000000  0.6301306153550429
  0.3472352745868308  0.5000000000000000  0.3697459065395630
  0.4118148130088239  0.0000000000000000  0.6301583888661662
  0.4118118824413584  0.0000000000000000  0.3697335103441393
  0.4764349720471303  0.5000000000000000  0.6301257275775405
  0.4764317527750713  0.5000000000000000  0.3697584914550535
  0.5410918485717390  0.0000000000000000  0.6300260404771351
  0.5410913959487280  0.0000000000000000  0.3698510744001603
  0.6059568547893184  0.5000000000000000  0.6304582111564796
  0.6059579721021977  0.5000000000000000  0.3694214700354534
  0.6710838069512094  0.0000000000000000  0.6313213654174931
  0.6710849312392549  0.0000000000000000  0.3685685458433819
 
  0.00000000E+00  0.00000000E+00  0.00000000E+00
  0.00000000E+00  0.00000000E+00  0.00000000E+00
  0.00000000E+00  0.00000000E+00  0.00000000E+00
  0.00000000E+00  0.00000000E+00  0.00000000E+00
  0.00000000E+00  0.00000000E+00  0.00000000E+00
  0.00000000E+00  0.00000000E+00  0.00000000E+00
  0.00000000E+00  0.00000000E+00  0.00000000E+00
  0.00000000E+00  0.00000000E+00  0.00000000E+00
  0.00000000E+00  0.00000000E+00  0.00000000E+00
  0.00000000E+00  0.00000000E+00  0.00000000E+00
  0.00000000E+00  0.00000000E+00  0.00000000E+00
  0.00000000E+00  0.00000000E+00  0.00000000E+00
  0.00000000E+00  0.00000000E+00  0.00000000E+00
  0.00000000E+00  0.00000000E+00  0.00000000E+00
  0.00000000E+00  0.00000000E+00  0.00000000E+00
  0.00000000E+00  0.00000000E+00  0.00000000E+00
  0.00000000E+00  0.00000000E+00  0.00000000E+00
  0.00000000E+00  0.00000000E+00  0.00000000E+00
  0.00000000E+00  0.00000000E+00  0.00000000E+00
  0.00000000E+00  0.00000000E+00  0.00000000E+00
  0.00000000E+00  0.00000000E+00  0.00000000E+00
  0.00000000E+00  0.00000000E+00  0.00000000E+00
  0.00000000E+00  0.00000000E+00  0.00000000E+00
  0.00000000E+00  0.00000000E+00  0.00000000E+00
  0.00000000E+00  0.00000000E+00  0.00000000E+00
  0.00000000E+00  0.00000000E+00  0.00000000E+00
  0.00000000E+00  0.00000000E+00  0.00000000E+00
  0.00000000E+00  0.00000000E+00  0.00000000E+00
  0.00000000E+00  0.00000000E+00  0.00000000E+00
  0.00000000E+00  0.00000000E+00  0.00000000E+00
  0.00000000E+00  0.00000000E+00  0.00000000E+00
  0.00000000E+00  0.00000000E+00  0.00000000E+00
  0.00000000E+00  0.00000000E+00  0.00000000E+00
  0.00000000E+00  0.00000000E+00  0.00000000E+00
  0.00000000E+00  0.00000000E+00  0.00000000E+00
  0.00000000E+00  0.00000000E+00  0.00000000E+00
  0.00000000E+00  0.00000000E+00  0.00000000E+00
  0.00000000E+00  0.00000000E+00  0.00000000E+00
  0.00000000E+00  0.00000000E+00  0.00000000E+00
  0.00000000E+00  0.00000000E+00  0.00000000E+00
  0.00000000E+00  0.00000000E+00  0.00000000E+00
  0.00000000E+00  0.00000000E+00  0.00000000E+00
  0.00000000E+00  0.00000000E+00  0.00000000E+00
  0.00000000E+00  0.00000000E+00  0.00000000E+00
  0.00000000E+00  0.00000000E+00  0.00000000E+00
  0.00000000E+00  0.00000000E+00  0.00000000E+00
  0.00000000E+00  0.00000000E+00  0.00000000E+00
  0.00000000E+00  0.00000000E+00  0.00000000E+00
  0.00000000E+00  0.00000000E+00  0.00000000E+00
  0.00000000E+00  0.00000000E+00  0.00000000E+00
  0.00000000E+00  0.00000000E+00  0.00000000E+00
  0.00000000E+00  0.00000000E+00  0.00000000E+00
  0.00000000E+00  0.00000000E+00  0.00000000E+00
  0.00000000E+00  0.00000000E+00  0.00000000E+00
  0.00000000E+00  0.00000000E+00  0.00000000E+00
  0.00000000E+00  0.00000000E+00  0.00000000E+00
  0.00000000E+00  0.00000000E+00  0.00000000E+00
  0.00000000E+00  0.00000000E+00  0.00000000E+00
  0.00000000E+00  0.00000000E+00  0.00000000E+00
  0.00000000E+00  0.00000000E+00  0.00000000E+00
  0.00000000E+00  0.00000000E+00  0.00000000E+00
  0.00000000E+00  0.00000000E+00  0.00000000E+00
  0.00000000E+00  0.00000000E+00  0.00000000E+00
  0.00000000E+00  0.00000000E+00  0.00000000E+00
  0.00000000E+00  0.00000000E+00  0.00000000E+00
  0.00000000E+00  0.00000000E+00  0.00000000E+00
  0.00000000E+00  0.00000000E+00  0.00000000E+00
  0.00000000E+00  0.00000000E+00  0.00000000E+00
  0.00000000E+00  0.00000000E+00  0.00000000E+00
  0.00000000E+00  0.00000000E+00  0.00000000E+00
