CONTCAR1                                
   1.00000000000000     
     5.0399999619000004    0.0000000000000000    0.0000000000000000
     0.0000000000000000   30.0000000000000000    0.0000000000000000
     0.0000000000000000    0.0000000000000000   23.0000000000000000
   Mo   N    Si
    12    48    24
Direct
  0.9621597955538790  0.1829403667712572  0.4999448621095446
  0.0003917595640366  0.2757959203780525  0.4999463605150571
  0.4881814973793081  0.2241393912181496  0.4999455432898515
  0.9915151192975846  0.3727680417142602  0.4999473547170088
  0.4935147619944621  0.3243632253292226  0.4999482129915835
  0.9920234007449779  0.4700146959777850  0.4999446054985205
  0.4920220296139164  0.4214838504396494  0.4999459586722497
  0.9935010701484052  0.5671371797896538  0.4999444044896673
  0.4915042504963029  0.5187319032086334  0.4999446803243067
  0.9881517760839453  0.6673651847448692  0.4999457943909283
  0.5003704374033121  0.6157033889070215  0.4999445877420203
  0.4621375954289629  0.7085548479851291  0.4999449456453844
  0.1639684238870363  0.2262918761158976  0.5545162236036207
  0.1639648777936089  0.2262920469019704  0.4453743579845502
  0.3205786267628341  0.1783337096466872  0.3443946516749392
  0.3205839985298955  0.1783325546376731  0.6554966470816068
  0.6953553406204812  0.1749485022133294  0.5582112960212070
  0.6953536723826738  0.1749499888283172  0.4416778701815637
  0.1592996054485248  0.3244093830856278  0.5544501988622746
  0.1592954320646131  0.3244097303805994  0.4454435054321336
  0.3241820390703646  0.2760053400888546  0.3482086917659799
  0.3241865731135836  0.2760051847949396  0.6516851612625085
  0.6581226865669295  0.2748063955475739  0.5532812850171134
  0.6581130318052586  0.2748067100819541  0.4466160655354496
  0.1562115415091088  0.4214364824000132  0.5547315367055883
  0.1562010488915316  0.4214352825518375  0.4451608648934885
  0.3245560478873961  0.3729906284313398  0.3471090762769581
  0.3245641202312301  0.3729932368638819  0.6527876649130252
  0.6559061667168626  0.3729532562827058  0.5547366162794600
  0.6559090000927756  0.3729528296267274  0.4451599751297317
  0.1559029142738590  0.5185495495819828  0.5547331779029961
  0.1558974581558209  0.5185479811724858  0.4451576820004992
  0.3245864131426844  0.4698966732352526  0.3470026017170199
  0.3246221919012885  0.4698994317708206  0.6528864391713284
  0.6562112509523462  0.4700612362386634  0.5547263873161757
  0.6562007591031357  0.4700604704247410  0.4451626021181385
  0.1580988723893919  0.6166964648869502  0.5532754250077376
  0.1580984718815190  0.6166970921529892  0.4466155053636937
  0.3250928087400189  0.5667019476724252  0.3478392948746081
  0.3251211354570327  0.5667032616819201  0.6520526220751123
  0.6592876469435375  0.5670900645671731  0.5544487831282934
  0.6592775070798640  0.5670898643178726  0.4454405873544509
  0.1953337073511906  0.7165526806978760  0.5582085244475279
  0.1953194315082403  0.7165520522216994  0.4416814549678412
  0.3266049340141305  0.6631388634833731  0.3466663786641541
  0.3266254089433674  0.6631370708453868  0.6532251946900036
  0.6639341060591787  0.6652114580314742  0.5545193043821033
  0.6639342584900678  0.6652120964814555  0.4453709578867977
  0.8266461065304074  0.2283658689360994  0.3466617163157019
  0.8266540148014637  0.2283630093676699  0.6532285386909341
  0.8251235949234859  0.3247985943058549  0.3478388073785441
  0.8251419187286517  0.3248000012930582  0.6520579330812661
  0.8246015753716026  0.4215983997526370  0.3470038293141525
  0.8246197943447005  0.4215992595883603  0.6528875894092729
  0.8245261590568008  0.5185029654811968  0.3471070016162425
  0.8245546384037578  0.5185043422365895  0.6527826880795279
  0.8241522116934463  0.6154940746155552  0.3482052488401639
  0.8241709487927183  0.6154941053041901  0.6516864988222169
  0.8205540366325165  0.7131680360176137  0.3443911862509167
  0.8205824115627383  0.7131651579644260  0.6554981857722735
  0.1586606227357131  0.2245117869961780  0.6328542298738287
  0.1586493860951589  0.2245120077762484  0.3670320317519329
  0.6163267680768274  0.1862856698638611  0.6278887026690814
  0.6163401650291315  0.1862864995877631  0.3719997614064399
  0.1573559421241355  0.3241821012760485  0.6307500165177924
  0.1573351366328326  0.3241825267180047  0.3691399760552611
  0.6550518625495136  0.2766451152318140  0.6303982125612397
  0.6550343995097269  0.2766459414817300  0.3695017782882034
  0.1561067014921344  0.4214153125108979  0.6308865795772106
  0.1560802143325251  0.4214128456030155  0.3690041753786952
  0.6558901988055651  0.3732177805194988  0.6308492600448978
  0.6558855253868349  0.3732176240159488  0.3690458096154571
  0.1558852502351372  0.5182810694599860  0.6308489710262910
  0.1558565163763269  0.5182794107921925  0.3690428766797809
  0.6561137474720889  0.4700811280789683  0.6308776557826318
  0.6560711465896416  0.4700817834336714  0.3690080174943460
  0.1550104646575726  0.6148579618024842  0.6303922895566985
  0.1549951066930740  0.6148587579454858  0.3695024041306908
  0.6573431346537028  0.5673146992258897  0.6307532496655729
  0.6573164482725642  0.5673145466709923  0.3691347852484814
  0.1163050624401312  0.7052180955335204  0.6278861764807804
  0.1162741855312188  0.7052189045574461  0.3720022857130331
  0.6586341011564880  0.6669871930065553  0.6328584980459213
  0.6586168788393427  0.6669880986404255  0.3670311467886783
 
  0.00000000E+00  0.00000000E+00  0.00000000E+00
  0.00000000E+00  0.00000000E+00  0.00000000E+00
  0.00000000E+00  0.00000000E+00  0.00000000E+00
  0.00000000E+00  0.00000000E+00  0.00000000E+00
  0.00000000E+00  0.00000000E+00  0.00000000E+00
  0.00000000E+00  0.00000000E+00  0.00000000E+00
  0.00000000E+00  0.00000000E+00  0.00000000E+00
  0.00000000E+00  0.00000000E+00  0.00000000E+00
  0.00000000E+00  0.00000000E+00  0.00000000E+00
  0.00000000E+00  0.00000000E+00  0.00000000E+00
  0.00000000E+00  0.00000000E+00  0.00000000E+00
  0.00000000E+00  0.00000000E+00  0.00000000E+00
  0.00000000E+00  0.00000000E+00  0.00000000E+00
  0.00000000E+00  0.00000000E+00  0.00000000E+00
  0.00000000E+00  0.00000000E+00  0.00000000E+00
  0.00000000E+00  0.00000000E+00  0.00000000E+00
  0.00000000E+00  0.00000000E+00  0.00000000E+00
  0.00000000E+00  0.00000000E+00  0.00000000E+00
  0.00000000E+00  0.00000000E+00  0.00000000E+00
  0.00000000E+00  0.00000000E+00  0.00000000E+00
  0.00000000E+00  0.00000000E+00  0.00000000E+00
  0.00000000E+00  0.00000000E+00  0.00000000E+00
  0.00000000E+00  0.00000000E+00  0.00000000E+00
  0.00000000E+00  0.00000000E+00  0.00000000E+00
  0.00000000E+00  0.00000000E+00  0.00000000E+00
  0.00000000E+00  0.00000000E+00  0.00000000E+00
  0.00000000E+00  0.00000000E+00  0.00000000E+00
  0.00000000E+00  0.00000000E+00  0.00000000E+00
  0.00000000E+00  0.00000000E+00  0.00000000E+00
  0.00000000E+00  0.00000000E+00  0.00000000E+00
  0.00000000E+00  0.00000000E+00  0.00000000E+00
  0.00000000E+00  0.00000000E+00  0.00000000E+00
  0.00000000E+00  0.00000000E+00  0.00000000E+00
  0.00000000E+00  0.00000000E+00  0.00000000E+00
  0.00000000E+00  0.00000000E+00  0.00000000E+00
  0.00000000E+00  0.00000000E+00  0.00000000E+00
  0.00000000E+00  0.00000000E+00  0.00000000E+00
  0.00000000E+00  0.00000000E+00  0.00000000E+00
  0.00000000E+00  0.00000000E+00  0.00000000E+00
  0.00000000E+00  0.00000000E+00  0.00000000E+00
  0.00000000E+00  0.00000000E+00  0.00000000E+00
  0.00000000E+00  0.00000000E+00  0.00000000E+00
  0.00000000E+00  0.00000000E+00  0.00000000E+00
  0.00000000E+00  0.00000000E+00  0.00000000E+00
  0.00000000E+00  0.00000000E+00  0.00000000E+00
  0.00000000E+00  0.00000000E+00  0.00000000E+00
  0.00000000E+00  0.00000000E+00  0.00000000E+00
  0.00000000E+00  0.00000000E+00  0.00000000E+00
  0.00000000E+00  0.00000000E+00  0.00000000E+00
  0.00000000E+00  0.00000000E+00  0.00000000E+00
  0.00000000E+00  0.00000000E+00  0.00000000E+00
  0.00000000E+00  0.00000000E+00  0.00000000E+00
  0.00000000E+00  0.00000000E+00  0.00000000E+00
  0.00000000E+00  0.00000000E+00  0.00000000E+00
  0.00000000E+00  0.00000000E+00  0.00000000E+00
  0.00000000E+00  0.00000000E+00  0.00000000E+00
  0.00000000E+00  0.00000000E+00  0.00000000E+00
  0.00000000E+00  0.00000000E+00  0.00000000E+00
  0.00000000E+00  0.00000000E+00  0.00000000E+00
  0.00000000E+00  0.00000000E+00  0.00000000E+00
  0.00000000E+00  0.00000000E+00  0.00000000E+00
  0.00000000E+00  0.00000000E+00  0.00000000E+00
  0.00000000E+00  0.00000000E+00  0.00000000E+00
  0.00000000E+00  0.00000000E+00  0.00000000E+00
  0.00000000E+00  0.00000000E+00  0.00000000E+00
  0.00000000E+00  0.00000000E+00  0.00000000E+00
  0.00000000E+00  0.00000000E+00  0.00000000E+00
  0.00000000E+00  0.00000000E+00  0.00000000E+00
  0.00000000E+00  0.00000000E+00  0.00000000E+00
  0.00000000E+00  0.00000000E+00  0.00000000E+00
  0.00000000E+00  0.00000000E+00  0.00000000E+00
  0.00000000E+00  0.00000000E+00  0.00000000E+00
  0.00000000E+00  0.00000000E+00  0.00000000E+00
  0.00000000E+00  0.00000000E+00  0.00000000E+00
  0.00000000E+00  0.00000000E+00  0.00000000E+00
  0.00000000E+00  0.00000000E+00  0.00000000E+00
  0.00000000E+00  0.00000000E+00  0.00000000E+00
  0.00000000E+00  0.00000000E+00  0.00000000E+00
  0.00000000E+00  0.00000000E+00  0.00000000E+00
  0.00000000E+00  0.00000000E+00  0.00000000E+00
  0.00000000E+00  0.00000000E+00  0.00000000E+00
  0.00000000E+00  0.00000000E+00  0.00000000E+00
  0.00000000E+00  0.00000000E+00  0.00000000E+00
  0.00000000E+00  0.00000000E+00  0.00000000E+00
