CONTCAR1                                
   1.00000000000000     
     5.0399999619000004    0.0000000000000000    0.0000000000000000
     0.0000000000000000   24.0000000000000000    0.0000000000000000
     0.0000000000000000    0.0000000000000000   23.0000000000000000
   N    Si   Mo
    28    14     7
Direct
  0.1960147553051736  0.5632490266408694  0.5582960303293752
  0.1960120417848013  0.5632496266882722  0.4415967859476687
  0.1583700667535432  0.6882533693897759  0.5531397670035955
  0.1583737876113705  0.6882535231560371  0.4467555270748680
  0.3261865866525847  0.6300005214460692  0.3467358571314184
  0.3261813123071802  0.6300006602911533  0.6531568216710578
  0.6644306256103234  0.6276059526757630  0.5543705146264070
  0.6644319376175309  0.6276064561502509  0.4455216301233557
  0.1583696966074629  0.8125782867821811  0.5531392856361361
  0.1583771977926457  0.8125773848186464  0.4467571937900086
  0.3248758581871125  0.7504099760720303  0.3488790430196057
  0.3248608414140857  0.7504098501207710  0.6510154889107428
  0.6631963370045056  0.7504212791752977  0.5541372379099655
  0.6631982109106380  0.7504210226165801  0.4457599974870848
  0.1959876911169670  0.9375956718014039  0.5582960790522092
  0.1959888091290113  0.9375898808486139  0.4415853795383196
  0.3261235508692466  0.8708249964718616  0.3467389261394463
  0.3261028070377625  0.8708308987881344  0.6531488622024260
  0.6644204532829058  0.8732396347701428  0.5543685190190949
  0.6644282093942858  0.8732376460966227  0.4455208731731762
  0.8198656248386789  0.5675009015049819  0.3445664295120042
  0.8198522769957497  0.5674996962007698  0.6553231613583202
  0.8234150981538888  0.6897030245595661  0.3484950475068430
  0.8234016805225920  0.6897018309230082  0.6513995843795719
  0.8233996232381140  0.8111328125549125  0.3484955357868495
  0.8233810834422193  0.8111360083510052  0.6513986226302035
  0.8197773172029502  0.9333337909642251  0.3445606975253357
  0.8197671311999315  0.9333370146300940  0.6553263062228560
  0.1159812001934781  0.5773908472757524  0.6279178815175223
  0.1159929270637599  0.5773888572977430  0.3719733038139761
  0.1542985998928103  0.6902363448742787  0.6302702592731338
  0.1543052970670622  0.6902384016615162  0.3696235873746236
  0.6583719604216532  0.6253499834099211  0.6327453180217599
  0.6583805227727849  0.6253512318137211  0.3671448628768107
  0.1542881784617195  0.8105783451599101  0.6302695749015945
  0.1543040474015709  0.8105765725941020  0.3696270961853048
  0.6580516069912027  0.7504208483548033  0.6305992703902576
  0.6580569451945899  0.7504201068328121  0.3692984200198176
  0.1158602161666769  0.9234406263245502  0.6279143942429385
  0.1158991169160181  0.9234407754226006  0.3719639428339659
  0.6583003413632937  0.8754870354582942  0.6327424998833311
  0.6583135353115561  0.8754817855637893  0.3671427918489928
  0.9894309961790372  0.6248248702747227  0.4999468066256827
  0.4620485607160575  0.5732763533472258  0.4999458732670842
  0.9961525867789346  0.7504167624646823  0.4999475150447008
  0.5013765458071474  0.6898254369870059  0.4999472449113486
  0.9894255287200807  0.8760122504561437  0.4999451742374168
  0.5013838716034409  0.8110154072584819  0.4999468966127417
  0.4619976629939505  0.9275655236789279  0.4999421024090282
 
  0.00000000E+00  0.00000000E+00  0.00000000E+00
  0.00000000E+00  0.00000000E+00  0.00000000E+00
  0.00000000E+00  0.00000000E+00  0.00000000E+00
  0.00000000E+00  0.00000000E+00  0.00000000E+00
  0.00000000E+00  0.00000000E+00  0.00000000E+00
  0.00000000E+00  0.00000000E+00  0.00000000E+00
  0.00000000E+00  0.00000000E+00  0.00000000E+00
  0.00000000E+00  0.00000000E+00  0.00000000E+00
  0.00000000E+00  0.00000000E+00  0.00000000E+00
  0.00000000E+00  0.00000000E+00  0.00000000E+00
  0.00000000E+00  0.00000000E+00  0.00000000E+00
  0.00000000E+00  0.00000000E+00  0.00000000E+00
  0.00000000E+00  0.00000000E+00  0.00000000E+00
  0.00000000E+00  0.00000000E+00  0.00000000E+00
  0.00000000E+00  0.00000000E+00  0.00000000E+00
  0.00000000E+00  0.00000000E+00  0.00000000E+00
  0.00000000E+00  0.00000000E+00  0.00000000E+00
  0.00000000E+00  0.00000000E+00  0.00000000E+00
  0.00000000E+00  0.00000000E+00  0.00000000E+00
  0.00000000E+00  0.00000000E+00  0.00000000E+00
  0.00000000E+00  0.00000000E+00  0.00000000E+00
  0.00000000E+00  0.00000000E+00  0.00000000E+00
  0.00000000E+00  0.00000000E+00  0.00000000E+00
  0.00000000E+00  0.00000000E+00  0.00000000E+00
  0.00000000E+00  0.00000000E+00  0.00000000E+00
  0.00000000E+00  0.00000000E+00  0.00000000E+00
  0.00000000E+00  0.00000000E+00  0.00000000E+00
  0.00000000E+00  0.00000000E+00  0.00000000E+00
  0.00000000E+00  0.00000000E+00  0.00000000E+00
  0.00000000E+00  0.00000000E+00  0.00000000E+00
  0.00000000E+00  0.00000000E+00  0.00000000E+00
  0.00000000E+00  0.00000000E+00  0.00000000E+00
  0.00000000E+00  0.00000000E+00  0.00000000E+00
  0.00000000E+00  0.00000000E+00  0.00000000E+00
  0.00000000E+00  0.00000000E+00  0.00000000E+00
  0.00000000E+00  0.00000000E+00  0.00000000E+00
  0.00000000E+00  0.00000000E+00  0.00000000E+00
  0.00000000E+00  0.00000000E+00  0.00000000E+00
  0.00000000E+00  0.00000000E+00  0.00000000E+00
  0.00000000E+00  0.00000000E+00  0.00000000E+00
  0.00000000E+00  0.00000000E+00  0.00000000E+00
  0.00000000E+00  0.00000000E+00  0.00000000E+00
  0.00000000E+00  0.00000000E+00  0.00000000E+00
  0.00000000E+00  0.00000000E+00  0.00000000E+00
  0.00000000E+00  0.00000000E+00  0.00000000E+00
  0.00000000E+00  0.00000000E+00  0.00000000E+00
  0.00000000E+00  0.00000000E+00  0.00000000E+00
  0.00000000E+00  0.00000000E+00  0.00000000E+00
  0.00000000E+00  0.00000000E+00  0.00000000E+00
