CONTCAR(2)                              
   1.00000000000000     
    34.0000000000000000    0.0000000000000000    0.0000000000000000
     0.0000000000000000    8.7299995421999999    0.0000000000000000
     0.0000000000000000    0.0000000000000000   23.0000000000000000
   Mo   N    Si
    24   104    48
Selective dynamics
Direct
  0.3709296873025991  0.0000305300632135  0.5003906565577978   T   T   T
  0.3774798076571315  0.3578576980583676  0.4971567864299047   T   T   T
  0.3774782822641356  0.6422266593846615  0.5035991114651210   T   T   T
  0.4456789562836860  0.1637910765738440  0.4992786660764068   T   T   T
  0.4549978921761522  0.5000414629684897  0.5002281027744999   T   T   T
  0.4456806640671331  0.8362837682482080  0.5011986189905286   T   T   T
  0.5210122869555605  0.0000185018296435  0.5001003908542359   T   T   T
  0.5227745982940206  0.3286425460745690  0.4997552068783406   T   T   T
  0.5227761097385226  0.6714139531304184  0.5004451580517824   T   T   T
  0.5957856721211101  0.1655350609472634  0.4999346646266360   T   T   T
  0.5958510924531950  0.5000201567342657  0.4999992571244363   T   T   T
  0.5957920717755485  0.8344828680582239  0.5000596178668388   T   T   T
  0.6698543899715474  0.0000017988872045  0.4999451951657292   T   T   T
  0.6697856567294167  0.3332040166246060  0.4999257560131056   T   T   T
  0.6698061934000634  0.6667986777427330  0.4999590223139947   T   T   T
  0.7441455049526979  0.1667960499942396  0.4998822261543552   T   T   T
  0.7441321892377033  0.4998684167101359  0.4999827050342276   T   T   T
  0.7441499675113832  0.8333100275868333  0.4999419124252924   T   T   T
  0.8188400270000002  0.0003400000000013  0.4994600120000001   F   F   F
  0.8190000060000031  0.3333199919999998  0.4999899860000028   F   F   F
  0.8188499809999996  0.6662999990000031  0.5005099770000001   F   F   F
  0.8951100109999999  0.1683900060000028  0.4972400070000020   F   F   F
  0.8951100109999999  0.4982399940000022  0.5027700070000023   F   F   F
  0.8945500250000009  0.8333200220000023  0.5000100139999972   F   F   F
  0.3943491261621404  0.1647634502410256  0.5525171057915728   T   T   T
  0.4107388399996452  0.4962784269961915  0.5505413624361708   T   T   T
  0.3892984173429710  0.8115188149588235  0.5652319014941867   T   T   T
  0.3892085806149836  0.1885479628083431  0.4354919238753610   T   T   T
  0.4106501839099792  0.5038347645352346  0.4500924588023523   T   T   T
  0.3942525640094630  0.8353242441437985  0.4481739593378862   T   T   T
  0.4219891057639060  0.0035302992033124  0.3475683365469493   T   T   T
  0.4209149493936906  0.3466235195699525  0.3476272508244733   T   T   T
  0.4196172488799732  0.6680886982837961  0.3513674971954899   T   T   T
  0.4221979581998809  0.9965454170891306  0.6530284488774853   T   T   T
  0.4198324443807380  0.3320028305452141  0.6492315448326664   T   T   T
  0.4211373164217207  0.6534502298827576  0.6529727521772699   T   T   T
  0.4705501842616897  0.0011559785832702  0.5545194305780257   T   T   T
  0.4736668578454299  0.3239957543319747  0.5540698890605427   T   T   T
  0.4736410318808169  0.6741874774502321  0.5551828228639906   T   T   T
  0.4704689867659866  0.9989064462213406  0.4458714791242215   T   T   T
  0.4735526765049300  0.3258994109110063  0.4451994375010813   T   T   T
  0.4735828757828386  0.6760734796796442  0.4463102792297207   T   T   T
  0.4957226486581519  0.1689927791430037  0.3472515999326760   T   T   T
  0.4957896234253525  0.5036255835361203  0.3488317208960012   T   T   T
  0.4956681365870708  0.8352397687966189  0.3475676270826895   T   T   T
  0.4958567670764040  0.1648020571570257  0.6527371315549715   T   T   T
  0.4959779275071625  0.4964471144648570  0.6514695226112863   T   T   T
  0.4959172262901888  0.8310919132596624  0.6530535065284155   T   T   T
  0.5463996924538677  0.1642137128296213  0.5545286775137654   T   T   T
  0.5466068476544166  0.4994643006891124  0.5540043302448510   T   T   T
  0.5464482602028085  0.8358911601222587  0.5548244730150955   T   T   T
  0.5463762911355374  0.1641600744370848  0.4452957103898925   T   T   T
  0.5465398640677108  0.5005911762572879  0.4461199631698207   T   T   T
  0.5463361171108403  0.8358148312436100  0.4455916318980755   T   T   T
  0.5701362642675321  0.0009604153257712  0.3472208618812687   T   T   T
  0.5700698784826912  0.3348158584903089  0.3478519899176931   T   T   T
  0.5702012800321086  0.6679668162338075  0.3478982277585700   T   T   T
  0.5703019488910073  0.9990795883392636  0.6528388752647274   T   T   T
  0.5703193886480378  0.3320517768821460  0.6521725388598298   T   T   T
  0.5702149370287017  0.6652635233077504  0.6522086905668232   T   T   T
  0.6204085828353456  0.0000060400274080  0.5543912915836842   T   T   T
  0.6203000192691093  0.3328495133641027  0.5541527192955371   T   T   T
  0.6203081134928468  0.6668962074632461  0.5542131636074714   T   T   T
  0.6203625159529267  0.0000064087389262  0.4455490454312567   T   T   T
  0.6202533114083764  0.3331474055474644  0.4457304162482743   T   T   T
  0.6202783958499509  0.6671587734268911  0.4457923780922144   T   T   T
  0.6442992401151102  0.1673214710607596  0.3476229882656128   T   T   T
  0.6443751968396612  0.5005738251522658  0.3478071569478800   T   T   T
  0.6444123368020698  0.8339001898127023  0.3476476170519192   T   T   T
  0.6445071750495899  0.1661796423307678  0.6522568422827604   T   T   T
  0.6443888474085426  0.4993830854421475  0.6521394765412509   T   T   T
  0.6444436309001205  0.8327115000514453  0.6522775245316410   T   T   T
  0.6944843004441452  0.1666704981929499  0.5540921033733568   T   T   T
  0.6944074719283080  0.4998775805219822  0.5540989445514413   T   T   T
  0.6944821342884424  0.8332898642661846  0.5541461515237600   T   T   T
  0.6944220336993823  0.1667528979129855  0.4457171355769205   T   T   T
  0.6944359182236255  0.5000201161101927  0.4458093871397395   T   T   T
  0.6944731275994016  0.8333855924438680  0.4457455645491990   T   T   T
  0.7183925394176356  0.0005875829877979  0.3477225096617005   T   T   T
  0.7184527230673510  0.3334504253164425  0.3478627048809031   T   T   T
  0.7184617496703893  0.6668999757715852  0.3479435774444255   T   T   T
  0.7184802956288792  0.9997357138826359  0.6519695372529952   T   T   T
  0.7184989906742274  0.3332650478852059  0.6520075435523580   T   T   T
  0.7184072438896223  0.6660635202895691  0.6521431969784359   T   T   T
  0.7689303902830957  0.0001419747078657  0.5537337248448608   T   T   T
  0.7689028226312331  0.3333186573974842  0.5539329225694374   T   T   T
  0.7687544616112305  0.6663916593698076  0.5541562318344120   T   T   T
  0.7687655196363608  0.0002342247953706  0.4457484898538553   T   T   T
  0.7689114606808474  0.3333509042682792  0.4459583231014506   T   T   T
  0.7689430939200790  0.6664920746794820  0.4461660595797383   T   T   T
  0.7925590445924300  0.1669235144566770  0.3477933732072458   T   T   T
  0.7921583279961979  0.4998359050520946  0.3486297039040167   T   T   T
  0.7919870233679660  0.8338401889874945  0.3481570787187493   T   T   T
  0.7921484203375897  0.1667846306045675  0.6512855122729277   T   T   T
  0.7925652207141027  0.4997247219290912  0.6521203633293737   T   T   T
  0.7919282692957310  0.8328171307226953  0.6517995268758554   T   T   T
  0.8439099790000029  0.1662099959999992  0.5525400040000008   F   F   F
  0.8436200020000015  0.4992699920000021  0.5547099710000012   F   F   F
  0.8433700200000018  0.8342199920000013  0.5534700159999986   F   F   F
  0.8436400289999995  0.1673499939999985  0.4452799860000027   F   F   F
  0.8439400199999980  0.5004199740000033  0.4474500119999973   F   F   F
  0.8434000020000028  0.8324300049999991  0.4465200010000032   F   F   F
  0.8661699889999994  0.9976800080000032  0.3464600149999981   F   F   F
  0.8662599920000034  0.3364300129999975  0.3470700089999994   F   F   F
  0.8644000290000022  0.6666799779999977  0.3483600019999997   F   F   F
  0.8643100259999983  0.9999399780000005  0.6516500119999975   F   F   F
  0.8661800029999966  0.3301700060000030  0.6529200080000024   F   F   F
  0.8660799860000026  0.6689599749999999  0.6535400149999973   F   F   F
  0.9184700249999977  0.0021500000000003  0.5506299729999995   F   F   F
  0.9167699810000016  0.3250600100000014  0.5553200239999967   F   F   F
  0.9171699879999977  0.6756100059999994  0.5565000180000013   F   F   F
  0.9172000290000000  0.9910500049999982  0.4435200100000003   F   F   F
  0.9168000219999968  0.3415899869999990  0.4446899889999969   F   F   F
  0.9185100199999994  0.6644799709999987  0.4494099919999996   F   F   F
  0.9389200210000013  0.1676499989999982  0.3408299979999967   F   F   F
  0.9384999870000001  0.5160700079999998  0.3410100039999975   F   F   F
  0.9383999710000026  0.8176900149999966  0.3404799999999994   F   F   F
  0.9384199980000005  0.1505700049999987  0.6589800120000007   F   F   F
  0.9388399719999967  0.4989899990000026  0.6591899989999987   F   F   F
  0.9383400079999973  0.8489699960000010  0.6595299840000024   F   F   F
  0.3476285585306371  0.4988286132220310  0.5788377673513523   T   T   T
  0.3495903419502611  0.8467308115437220  0.5467689619524023   T   T   T
  0.3495258376035864  0.1533874285251215  0.4541099442030756   T   T   T
  0.3475082396708302  0.5012400188412016  0.4220083077148047   T   T   T
  0.9651413385880261  0.1155621707183414  0.6907127479957751   T   T   T
  0.9649324540966333  0.8848687302993170  0.6914020249587196   T   T   T
  0.9649680717196318  0.7820424125106626  0.3085457887559002   T   T   T
  0.9651905602393853  0.5508944624391248  0.3092164622353835   T   T   T
  0.3955184693072624  0.1619373514249602  0.6297643432311304   T   T   T
  0.3930096957130900  0.4945752531365883  0.6189998316559766   T   T   T
  0.3955379338521610  0.8245775288122346  0.6429565651178493   T   T   T
  0.3953400183053759  0.1754689351555001  0.3577439320114948   T   T   T
  0.3928369057703733  0.5055053886162568  0.3816829089844376   T   T   T
  0.3953337081458486  0.8381611594021408  0.3709155485737909   T   T   T
  0.4712282611407304  0.9976768878995514  0.6313335093909984   T   T   T
  0.4701889847626930  0.3306501908134507  0.6304579376183526   T   T   T
  0.4706309794316184  0.6630854524612388  0.6314640173257402   T   T   T
  0.4710684156071707  0.0023836111201447  0.3690583108627834   T   T   T
  0.4704543538747004  0.3369947390966814  0.3689284710469636   T   T   T
  0.4700161317600546  0.6694090196095317  0.3699343796532943   T   T   T
  0.5454032809740212  0.1654465219043146  0.6307861993082824   T   T   T
  0.5455038493864066  0.4982651609239639  0.6299783585541689   T   T   T
  0.5454587233284229  0.8322423331693329  0.6310152827181739   T   T   T
  0.5453132854438962  0.1678282520516916  0.3691117619844491   T   T   T
  0.5453683315338722  0.5017973350101101  0.3701505291446097   T   T   T
  0.5452640544238392  0.8345613282365534  0.3693357684765672   T   T   T
  0.6197560875401891  0.9994661161436014  0.6304748721528100   T   T   T
  0.6197746392613581  0.3325597328198455  0.6301664740435982   T   T   T
  0.6197285762234799  0.6660692204267988  0.6302202008007214   T   T   T
  0.6196262036753737  0.0005509574565750  0.3694703516507758   T   T   T
  0.6196280034728261  0.3340016005814874  0.3697268744097642   T   T   T
  0.6197158059207624  0.6674291018007921  0.3697788993411706   T   T   T
  0.6939122139508385  0.1664802561190442  0.6300669250856643   T   T   T
  0.6938032231140454  0.4996350371574181  0.6300666111250450   T   T   T
  0.6938764000422282  0.8328753945404372  0.6301327584522696   T   T   T
  0.6937420212282959  0.1670342494581831  0.3697382099568003   T   T   T
  0.6938428209202954  0.5001998971409591  0.3698513154653469   T   T   T
  0.6938524809396114  0.8337893871089292  0.3697603829634417   T   T   T
  0.7677541555988157  0.9998177547415210  0.6296033103343319   T   T   T
  0.7678674406504484  0.3339271099107748  0.6298554785838490   T   T   T
  0.7677821287916515  0.6655717313452953  0.6300856346758579   T   T   T
  0.7677779718286715  0.0010351677589284  0.3698321217027853   T   T   T
  0.7678353805843230  0.3327310907877461  0.3700404288990740   T   T   T
  0.7677628511009758  0.6668616833521597  0.3702848264094669   T   T   T
  0.8411410456254487  0.1696216017668419  0.6286251464629942   T   T   T
  0.8424599450644621  0.4997360764812342  0.6315403886771236   T   T   T
  0.8409500120000004  0.8298199769999997  0.6295099849999986   F   F   F
  0.8424400090000006  0.1668699980000028  0.3684099910000000   F   F   F
  0.8411399720000006  0.4969300030000028  0.3713400070000006   F   F   F
  0.8410400149999973  0.8368300200000007  0.3704900150000014   F   F   F
  0.9101499920000009  0.9994699949999983  0.6208900210000010   F   F   F
  0.9163500069999984  0.3518699999999981  0.6292999980000005   F   F   F
  0.9164000150000007  0.6473799939999978  0.6300500039999974   F   F   F
  0.9164699909999996  0.0192699990000023  0.3699699940000016   F   F   F
  0.9164199829999973  0.3147499860000025  0.3707099849999977   F   F   F
  0.9102399949999977  0.6671199800000025  0.3791399899999988   F   F   F
 
  0.00000000E+00  0.00000000E+00  0.00000000E+00
  0.00000000E+00  0.00000000E+00  0.00000000E+00
  0.00000000E+00  0.00000000E+00  0.00000000E+00
  0.00000000E+00  0.00000000E+00  0.00000000E+00
  0.00000000E+00  0.00000000E+00  0.00000000E+00
  0.00000000E+00  0.00000000E+00  0.00000000E+00
  0.00000000E+00  0.00000000E+00  0.00000000E+00
  0.00000000E+00  0.00000000E+00  0.00000000E+00
  0.00000000E+00  0.00000000E+00  0.00000000E+00
  0.00000000E+00  0.00000000E+00  0.00000000E+00
  0.00000000E+00  0.00000000E+00  0.00000000E+00
  0.00000000E+00  0.00000000E+00  0.00000000E+00
  0.00000000E+00  0.00000000E+00  0.00000000E+00
  0.00000000E+00  0.00000000E+00  0.00000000E+00
  0.00000000E+00  0.00000000E+00  0.00000000E+00
  0.00000000E+00  0.00000000E+00  0.00000000E+00
  0.00000000E+00  0.00000000E+00  0.00000000E+00
  0.00000000E+00  0.00000000E+00  0.00000000E+00
  0.00000000E+00  0.00000000E+00  0.00000000E+00
  0.00000000E+00  0.00000000E+00  0.00000000E+00
  0.00000000E+00  0.00000000E+00  0.00000000E+00
  0.00000000E+00  0.00000000E+00  0.00000000E+00
  0.00000000E+00  0.00000000E+00  0.00000000E+00
  0.00000000E+00  0.00000000E+00  0.00000000E+00
  0.00000000E+00  0.00000000E+00  0.00000000E+00
  0.00000000E+00  0.00000000E+00  0.00000000E+00
  0.00000000E+00  0.00000000E+00  0.00000000E+00
  0.00000000E+00  0.00000000E+00  0.00000000E+00
  0.00000000E+00  0.00000000E+00  0.00000000E+00
  0.00000000E+00  0.00000000E+00  0.00000000E+00
  0.00000000E+00  0.00000000E+00  0.00000000E+00
  0.00000000E+00  0.00000000E+00  0.00000000E+00
  0.00000000E+00  0.00000000E+00  0.00000000E+00
  0.00000000E+00  0.00000000E+00  0.00000000E+00
  0.00000000E+00  0.00000000E+00  0.00000000E+00
  0.00000000E+00  0.00000000E+00  0.00000000E+00
  0.00000000E+00  0.00000000E+00  0.00000000E+00
  0.00000000E+00  0.00000000E+00  0.00000000E+00
  0.00000000E+00  0.00000000E+00  0.00000000E+00
  0.00000000E+00  0.00000000E+00  0.00000000E+00
  0.00000000E+00  0.00000000E+00  0.00000000E+00
  0.00000000E+00  0.00000000E+00  0.00000000E+00
  0.00000000E+00  0.00000000E+00  0.00000000E+00
  0.00000000E+00  0.00000000E+00  0.00000000E+00
  0.00000000E+00  0.00000000E+00  0.00000000E+00
  0.00000000E+00  0.00000000E+00  0.00000000E+00
  0.00000000E+00  0.00000000E+00  0.00000000E+00
  0.00000000E+00  0.00000000E+00  0.00000000E+00
  0.00000000E+00  0.00000000E+00  0.00000000E+00
  0.00000000E+00  0.00000000E+00  0.00000000E+00
  0.00000000E+00  0.00000000E+00  0.00000000E+00
  0.00000000E+00  0.00000000E+00  0.00000000E+00
  0.00000000E+00  0.00000000E+00  0.00000000E+00
  0.00000000E+00  0.00000000E+00  0.00000000E+00
  0.00000000E+00  0.00000000E+00  0.00000000E+00
  0.00000000E+00  0.00000000E+00  0.00000000E+00
  0.00000000E+00  0.00000000E+00  0.00000000E+00
  0.00000000E+00  0.00000000E+00  0.00000000E+00
  0.00000000E+00  0.00000000E+00  0.00000000E+00
  0.00000000E+00  0.00000000E+00  0.00000000E+00
  0.00000000E+00  0.00000000E+00  0.00000000E+00
  0.00000000E+00  0.00000000E+00  0.00000000E+00
  0.00000000E+00  0.00000000E+00  0.00000000E+00
  0.00000000E+00  0.00000000E+00  0.00000000E+00
  0.00000000E+00  0.00000000E+00  0.00000000E+00
  0.00000000E+00  0.00000000E+00  0.00000000E+00
  0.00000000E+00  0.00000000E+00  0.00000000E+00
  0.00000000E+00  0.00000000E+00  0.00000000E+00
  0.00000000E+00  0.00000000E+00  0.00000000E+00
  0.00000000E+00  0.00000000E+00  0.00000000E+00
  0.00000000E+00  0.00000000E+00  0.00000000E+00
  0.00000000E+00  0.00000000E+00  0.00000000E+00
  0.00000000E+00  0.00000000E+00  0.00000000E+00
  0.00000000E+00  0.00000000E+00  0.00000000E+00
  0.00000000E+00  0.00000000E+00  0.00000000E+00
  0.00000000E+00  0.00000000E+00  0.00000000E+00
  0.00000000E+00  0.00000000E+00  0.00000000E+00
  0.00000000E+00  0.00000000E+00  0.00000000E+00
  0.00000000E+00  0.00000000E+00  0.00000000E+00
  0.00000000E+00  0.00000000E+00  0.00000000E+00
  0.00000000E+00  0.00000000E+00  0.00000000E+00
  0.00000000E+00  0.00000000E+00  0.00000000E+00
  0.00000000E+00  0.00000000E+00  0.00000000E+00
  0.00000000E+00  0.00000000E+00  0.00000000E+00
  0.00000000E+00  0.00000000E+00  0.00000000E+00
  0.00000000E+00  0.00000000E+00  0.00000000E+00
  0.00000000E+00  0.00000000E+00  0.00000000E+00
  0.00000000E+00  0.00000000E+00  0.00000000E+00
  0.00000000E+00  0.00000000E+00  0.00000000E+00
  0.00000000E+00  0.00000000E+00  0.00000000E+00
  0.00000000E+00  0.00000000E+00  0.00000000E+00
  0.00000000E+00  0.00000000E+00  0.00000000E+00
  0.00000000E+00  0.00000000E+00  0.00000000E+00
  0.00000000E+00  0.00000000E+00  0.00000000E+00
  0.00000000E+00  0.00000000E+00  0.00000000E+00
  0.00000000E+00  0.00000000E+00  0.00000000E+00
  0.00000000E+00  0.00000000E+00  0.00000000E+00
  0.00000000E+00  0.00000000E+00  0.00000000E+00
  0.00000000E+00  0.00000000E+00  0.00000000E+00
  0.00000000E+00  0.00000000E+00  0.00000000E+00
  0.00000000E+00  0.00000000E+00  0.00000000E+00
  0.00000000E+00  0.00000000E+00  0.00000000E+00
  0.00000000E+00  0.00000000E+00  0.00000000E+00
  0.00000000E+00  0.00000000E+00  0.00000000E+00
  0.00000000E+00  0.00000000E+00  0.00000000E+00
  0.00000000E+00  0.00000000E+00  0.00000000E+00
  0.00000000E+00  0.00000000E+00  0.00000000E+00
  0.00000000E+00  0.00000000E+00  0.00000000E+00
  0.00000000E+00  0.00000000E+00  0.00000000E+00
  0.00000000E+00  0.00000000E+00  0.00000000E+00
  0.00000000E+00  0.00000000E+00  0.00000000E+00
  0.00000000E+00  0.00000000E+00  0.00000000E+00
  0.00000000E+00  0.00000000E+00  0.00000000E+00
  0.00000000E+00  0.00000000E+00  0.00000000E+00
  0.00000000E+00  0.00000000E+00  0.00000000E+00
  0.00000000E+00  0.00000000E+00  0.00000000E+00
  0.00000000E+00  0.00000000E+00  0.00000000E+00
  0.00000000E+00  0.00000000E+00  0.00000000E+00
  0.00000000E+00  0.00000000E+00  0.00000000E+00
  0.00000000E+00  0.00000000E+00  0.00000000E+00
  0.00000000E+00  0.00000000E+00  0.00000000E+00
  0.00000000E+00  0.00000000E+00  0.00000000E+00
  0.00000000E+00  0.00000000E+00  0.00000000E+00
  0.00000000E+00  0.00000000E+00  0.00000000E+00
  0.00000000E+00  0.00000000E+00  0.00000000E+00
  0.00000000E+00  0.00000000E+00  0.00000000E+00
  0.00000000E+00  0.00000000E+00  0.00000000E+00
  0.00000000E+00  0.00000000E+00  0.00000000E+00
  0.00000000E+00  0.00000000E+00  0.00000000E+00
  0.00000000E+00  0.00000000E+00  0.00000000E+00
  0.00000000E+00  0.00000000E+00  0.00000000E+00
  0.00000000E+00  0.00000000E+00  0.00000000E+00
  0.00000000E+00  0.00000000E+00  0.00000000E+00
  0.00000000E+00  0.00000000E+00  0.00000000E+00
  0.00000000E+00  0.00000000E+00  0.00000000E+00
  0.00000000E+00  0.00000000E+00  0.00000000E+00
  0.00000000E+00  0.00000000E+00  0.00000000E+00
  0.00000000E+00  0.00000000E+00  0.00000000E+00
  0.00000000E+00  0.00000000E+00  0.00000000E+00
  0.00000000E+00  0.00000000E+00  0.00000000E+00
  0.00000000E+00  0.00000000E+00  0.00000000E+00
  0.00000000E+00  0.00000000E+00  0.00000000E+00
  0.00000000E+00  0.00000000E+00  0.00000000E+00
  0.00000000E+00  0.00000000E+00  0.00000000E+00
  0.00000000E+00  0.00000000E+00  0.00000000E+00
  0.00000000E+00  0.00000000E+00  0.00000000E+00
  0.00000000E+00  0.00000000E+00  0.00000000E+00
  0.00000000E+00  0.00000000E+00  0.00000000E+00
  0.00000000E+00  0.00000000E+00  0.00000000E+00
  0.00000000E+00  0.00000000E+00  0.00000000E+00
  0.00000000E+00  0.00000000E+00  0.00000000E+00
  0.00000000E+00  0.00000000E+00  0.00000000E+00
  0.00000000E+00  0.00000000E+00  0.00000000E+00
  0.00000000E+00  0.00000000E+00  0.00000000E+00
  0.00000000E+00  0.00000000E+00  0.00000000E+00
  0.00000000E+00  0.00000000E+00  0.00000000E+00
  0.00000000E+00  0.00000000E+00  0.00000000E+00
  0.00000000E+00  0.00000000E+00  0.00000000E+00
  0.00000000E+00  0.00000000E+00  0.00000000E+00
  0.00000000E+00  0.00000000E+00  0.00000000E+00
  0.00000000E+00  0.00000000E+00  0.00000000E+00
  0.00000000E+00  0.00000000E+00  0.00000000E+00
  0.00000000E+00  0.00000000E+00  0.00000000E+00
  0.00000000E+00  0.00000000E+00  0.00000000E+00
  0.00000000E+00  0.00000000E+00  0.00000000E+00
  0.00000000E+00  0.00000000E+00  0.00000000E+00
  0.00000000E+00  0.00000000E+00  0.00000000E+00
  0.00000000E+00  0.00000000E+00  0.00000000E+00
  0.00000000E+00  0.00000000E+00  0.00000000E+00
  0.00000000E+00  0.00000000E+00  0.00000000E+00
  0.00000000E+00  0.00000000E+00  0.00000000E+00
  0.00000000E+00  0.00000000E+00  0.00000000E+00
  0.00000000E+00  0.00000000E+00  0.00000000E+00
  0.00000000E+00  0.00000000E+00  0.00000000E+00
  0.00000000E+00  0.00000000E+00  0.00000000E+00
  0.00000000E+00  0.00000000E+00  0.00000000E+00
