POSCAR_FIX                              
   1.00000000000000     
    34.0000000000000000    0.0000000000000000    0.0000000000000000
     0.0000000000000000    8.7299995421999999    0.0000000000000000
     0.0000000000000000    0.0000000000000000   23.0000000000000000
   Mo   N    Si
    24   104    48
Selective dynamics
Direct
  0.3761121889438764  0.0005033410276604  0.5018912296663753   T   T   T
  0.3751216343994075  0.3308810675721354  0.5028083939777962   T   T   T
  0.3759097306205290  0.6698566531336253  0.5122694588401466   T   T   T
  0.4495612203839259  0.1645285018006576  0.4998268631440837   T   T   T
  0.4495330192753770  0.5012801774277079  0.4997515692784825   T   T   T
  0.4482223863051212  0.8343613957137272  0.4996824110869975   T   T   T
  0.5222033288157439  0.9993771952044758  0.5005054642707877   T   T   T
  0.5222678012559018  0.3331592494994346  0.4998969413450522   T   T   T
  0.5219396302535265  0.6673295045602238  0.4995059331403471   T   T   T
  0.5958708812948592  0.1664845054572825  0.5001651367356359   T   T   T
  0.5958001085494803  0.5001211906157637  0.4996163655037231   T   T   T
  0.5957544047423952  0.8331366654714846  0.4999422002337093   T   T   T
  0.6698419092572938  0.9998524835849836  0.5000196180384584   T   T   T
  0.6698361186511866  0.3332963288126040  0.4999397218116328   T   T   T
  0.6698359383884732  0.6666290018373573  0.4998850813480554   T   T   T
  0.7441506655716658  0.1667492369251412  0.4999279309891879   T   T   T
  0.7441563686025549  0.4998397838867393  0.5000180905743633   T   T   T
  0.7441603375778931  0.8332714698659419  0.4999735125768536   T   T   T
  0.8188400270000002  0.0003400000000013  0.4994600120000001   F   F   F
  0.8190000060000031  0.3333199919999998  0.4999899860000028   F   F   F
  0.8188499809999996  0.6662999990000031  0.5005099770000001   F   F   F
  0.8951100109999999  0.1683900060000028  0.4972400070000020   F   F   F
  0.8951100109999999  0.4982399940000022  0.5027700070000023   F   F   F
  0.8945500250000009  0.8333200220000023  0.5000100139999972   F   F   F
  0.4014787178529092  0.1562245552136862  0.5511654948154556   T   T   T
  0.4039516496675664  0.5003749382954324  0.5527417547191498   T   T   T
  0.4013051763442270  0.8466738643897329  0.5544583193980416   T   T   T
  0.4001093250873156  0.1545803673974853  0.4498284359064836   T   T   T
  0.3978865512939844  0.5138807744326980  0.4542647909964939   T   T   T
  0.3944928528563605  0.8329729396745408  0.4492587718444023   T   T   T
  0.4251473327873661  0.0057658613425751  0.3500915346704513   T   T   T
  0.4219168551143487  0.3267008410703404  0.3493558483272162   T   T   T
  0.4147151069335332  0.6651522453306290  0.3530867602814738   T   T   T
  0.4152773903649520  0.0015803037497371  0.6509192414068938   T   T   T
  0.4229636692145694  0.3408209583132790  0.6540442927632025   T   T   T
  0.4239505445801268  0.6588144893230127  0.6543755408418380   T   T   T
  0.4723895359463154  0.9991094054880990  0.5548597338571869   T   T   T
  0.4732163431531720  0.3334138145119185  0.5543951713955825   T   T   T
  0.4730958346366402  0.6676384355306146  0.5542832033613525   T   T   T
  0.4734815694637879  0.9994102543867376  0.4460146322690186   T   T   T
  0.4729165988723494  0.3324779518831851  0.4454635809204570   T   T   T
  0.4717261226699364  0.6679497329181819  0.4453064313316841   T   T   T
  0.4976350178113939  0.1671601281091178  0.3476617729259167   T   T   T
  0.4946153115629938  0.5014820735380857  0.3477562057494906   T   T   T
  0.4955107092021945  0.8296297456017295  0.3477310349283267   T   T   T
  0.4950129277631029  0.1649748483327386  0.6523223719550311   T   T   T
  0.4975855626402553  0.4999960745246700  0.6521267427093589   T   T   T
  0.4952379213297037  0.8359376447552167  0.6523980122560041   T   T   T
  0.5464017235761004  0.1665706361524665  0.5545139987699110   T   T   T
  0.5466540163514493  0.5005072111341257  0.5537446960926832   T   T   T
  0.5463281303346049  0.8327770198197370  0.5544085083681838   T   T   T
  0.5467628134555924  0.1660513728627983  0.4459799023198778   T   T   T
  0.5462239897115079  0.5001847810598499  0.4453098041624716   T   T   T
  0.5463620503793969  0.8334341025750949  0.4455139160030511   T   T   T
  0.5703382317032422  0.9985353979929567  0.3478302791405908   T   T   T
  0.5703093488458474  0.3347062356051509  0.3477648674568285   T   T   T
  0.5702218156986499  0.6658534650712292  0.3473902996373315   T   T   T
  0.5701577243945206  0.0001670029803904  0.6524064476288046   T   T   T
  0.5702980695578602  0.3322050266721585  0.6519921607722899   T   T   T
  0.5703090814595042  0.6679065424935451  0.6520167611196386   T   T   T
  0.6203419901421122  0.9996803676940739  0.5543057097479170   T   T   T
  0.6203675798713275  0.3335234982450087  0.5541211742608479   T   T   T
  0.6203482695075606  0.6665624718787962  0.5540640879761595   T   T   T
  0.6203793895322464  0.9997947315325275  0.4458112189991620   T   T   T
  0.6203789622961949  0.3331488928607519  0.4456900486975026   T   T   T
  0.6203419049411701  0.6667599439756057  0.4455346642765726   T   T   T
  0.6443107383027121  0.1665697106326076  0.3478058358817861   T   T   T
  0.6445952774338479  0.5000300925497720  0.3476719690194456   T   T   T
  0.6445208468792872  0.8329337879967299  0.3476894848109658   T   T   T
  0.6445106591149642  0.1664486062496629  0.6521659676664886   T   T   T
  0.6443004850063291  0.4999721030839634  0.6520799869364218   T   T   T
  0.6444967047255974  0.8335118442475782  0.6521936177215234   T   T   T
  0.6945126825635416  0.1666556400326614  0.5541193213187515   T   T   T
  0.6944512855688703  0.4999439873656918  0.5541164469603083   T   T   T
  0.6945126707991803  0.8331805372626236  0.5541447295586693   T   T   T
  0.6944588986740431  0.1665882983963181  0.4457998551998299   T   T   T
  0.6945362875119704  0.4999065263998613  0.4457964428354176   T   T   T
  0.6945237313957098  0.8333124541702371  0.4457791609646329   T   T   T
  0.7184335794111627  0.0002453063557858  0.3477843449493631   T   T   T
  0.7185223893982480  0.3330162377244032  0.3479062585491705   T   T   T
  0.7185800658749525  0.6665977690268587  0.3479541649090316   T   T   T
  0.7185247522791600  0.9999644530589070  0.6519805463972849   T   T   T
  0.7184799082442620  0.3335051574611578  0.6520317289346378   T   T   T
  0.7184074879466849  0.6662780304483051  0.6521615515102788   T   T   T
  0.7689683333112102  0.0001286470060667  0.5537575896910157   T   T   T
  0.7689342144550876  0.3333061361814170  0.5539698282070843   T   T   T
  0.7687914240787598  0.6663904002923358  0.5541853653286859   T   T   T
  0.7687956962153554  0.0001947243257106  0.4457806520994814   T   T   T
  0.7689486013532909  0.3332877294344693  0.4459901189222458   T   T   T
  0.7689901362235247  0.6664544726131106  0.4461926644090090   T   T   T
  0.7926044618059196  0.1667651088416142  0.3478084616704077   T   T   T
  0.7922058790799807  0.4996750090362160  0.3486395028587279   T   T   T
  0.7920365952817801  0.8337402401984948  0.3481709557008834   T   T   T
  0.7921603539521027  0.1668961541747430  0.6513207639388903   T   T   T
  0.7925724466229657  0.4998018458419332  0.6521569620344528   T   T   T
  0.7919621450893873  0.8328867644217817  0.6518163303808201   T   T   T
  0.8439099790000029  0.1662099959999992  0.5525400040000008   F   F   F
  0.8436200020000015  0.4992699920000021  0.5547099710000012   F   F   F
  0.8433700200000018  0.8342199920000013  0.5534700159999986   F   F   F
  0.8436400289999995  0.1673499939999985  0.4452799860000027   F   F   F
  0.8439400199999980  0.5004199740000033  0.4474500119999973   F   F   F
  0.8434000020000028  0.8324300049999991  0.4465200010000032   F   F   F
  0.8661699889999994  0.9976800080000032  0.3464600149999981   F   F   F
  0.8662599920000034  0.3364300129999975  0.3470700089999994   F   F   F
  0.8644000290000022  0.6666799779999977  0.3483600019999997   F   F   F
  0.8643100259999983  0.9999399780000005  0.6516500119999975   F   F   F
  0.8661800029999966  0.3301700060000030  0.6529200080000024   F   F   F
  0.8660799860000026  0.6689599749999999  0.6535400149999973   F   F   F
  0.9184700249999977  0.0021500000000003  0.5506299729999995   F   F   F
  0.9167699810000016  0.3250600100000014  0.5553200239999967   F   F   F
  0.9171699879999977  0.6756100059999994  0.5565000180000013   F   F   F
  0.9172000290000000  0.9910500049999982  0.4435200100000003   F   F   F
  0.9168000219999968  0.3415899869999990  0.4446899889999969   F   F   F
  0.9185100199999994  0.6644799709999987  0.4494099919999996   F   F   F
  0.9389200210000013  0.1676499989999982  0.3408299979999967   F   F   F
  0.9384999870000001  0.5160700079999998  0.3410100039999975   F   F   F
  0.9383999710000026  0.8176900149999966  0.3404799999999994   F   F   F
  0.9384199980000005  0.1505700049999987  0.6589800120000007   F   F   F
  0.9388399719999967  0.4989899990000026  0.6591899989999987   F   F   F
  0.9383400079999973  0.8489699960000010  0.6595299840000024   F   F   F
  0.3580271711998237  0.3258030729877806  0.6010736044101108   T   T   T
  0.3572977217290682  0.6730176396760992  0.6090971263308442   T   T   T
  0.3589154488019941  0.9981420043666699  0.3550726215373151   T   T   T
  0.3570194139525503  0.3339584654457616  0.4017036950808490   T   T   T
  0.9652247208278163  0.1164659061732333  0.6905814609748020   T   T   T
  0.9650082019895512  0.8839574081877877  0.6912915157404920   T   T   T
  0.9650356973900455  0.7827515227097216  0.3086551345445839   T   T   T
  0.9652681035968131  0.5501829173645195  0.3093480903352760   T   T   T
  0.3955013942076142  0.1918304423409843  0.6250316767524553   T   T   T
  0.3895894910678095  0.5001775218787072  0.6253065055147010   T   T   T
  0.3956465617442754  0.8084018934499592  0.6282365456231097   T   T   T
  0.3890589265161035  0.1670814484759172  0.3746619970452657   T   T   T
  0.3939000347952875  0.4740437332590918  0.3805175730693791   T   T   T
  0.3955542373284285  0.8561393974714746  0.3726843470148699   T   T   T
  0.4678129569120250  0.0002949914882106  0.6320910637220858   T   T   T
  0.4712519003282521  0.3361823238818080  0.6321293231570106   T   T   T
  0.4717773814001259  0.6646645270777163  0.6320406913418538   T   T   T
  0.4728659093697271  0.0013112098075397  0.3689459811221894   T   T   T
  0.4708878201182826  0.3302156241582545  0.3681283718894713   T   T   T
  0.4674593250250106  0.6663160080047352  0.3685456882945559   T   T   T
  0.5448090343562653  0.1656218796363591  0.6306617305943339   T   T   T
  0.5462581446817710  0.5000097122561353  0.6298687441913083   T   T   T
  0.5449304525101845  0.8347201396032505  0.6306290371247643   T   T   T
  0.5463573147230130  0.1669100708583852  0.3698240313395911   T   T   T
  0.5446056518918720  0.5009155242103775  0.3691441260690121   T   T   T
  0.5451193010263978  0.8311845536347379  0.3692557278983359   T   T   T
  0.6196267490053641  0.0000041175257995  0.6303239216880115   T   T   T
  0.6197094270410272  0.3327114622110839  0.6301552621708146   T   T   T
  0.6197123657539959  0.6672546040128354  0.6301352141237176   T   T   T
  0.6197376187976363  0.9992309925130696  0.3697539293488638   T   T   T
  0.6197248224389258  0.3339500995415657  0.3696635053145930   T   T   T
  0.6196752898879173  0.6663001660275026  0.3695035455830869   T   T   T
  0.6938782100654081  0.1666575094851825  0.6300811225457684   T   T   T
  0.6937083857379548  0.4999082114942425  0.6300988369955850   T   T   T
  0.6938649884479452  0.8332115197536157  0.6301274290833997   T   T   T
  0.6937221532677117  0.1666395585867562  0.3698172904683951   T   T   T
  0.6939367016005662  0.4998894059226476  0.3698415010446938   T   T   T
  0.6938877440976525  0.8332833157330922  0.3697951558902737   T   T   T
  0.7677424734677174  0.9999104387115660  0.6296320916509501   T   T   T
  0.7678119714691078  0.3340414285900143  0.6298982505313939   T   T   T
  0.7677432991462603  0.6656692619080177  0.6301233441625974   T   T   T
  0.7677697860280401  0.0008883573756924  0.3698554448484273   T   T   T
  0.7678453780492230  0.3325243819161554  0.3700676159560428   T   T   T
  0.7677985595859124  0.6667186258715205  0.3703086126343281   T   T   T
  0.8410995528406598  0.1696744569393180  0.6286189276098366   T   T   T
  0.8424143014109933  0.4997441795289017  0.6315483509446672   T   T   T
  0.8409500120000004  0.8298199769999997  0.6295099849999986   F   F   F
  0.8424400090000006  0.1668699980000028  0.3684099910000000   F   F   F
  0.8411399720000006  0.4969300030000028  0.3713400070000006   F   F   F
  0.8410400149999973  0.8368300200000007  0.3704900150000014   F   F   F
  0.9101499920000009  0.9994699949999983  0.6208900210000010   F   F   F
  0.9163500069999984  0.3518699999999981  0.6292999980000005   F   F   F
  0.9164000150000007  0.6473799939999978  0.6300500039999974   F   F   F
  0.9164699909999996  0.0192699990000023  0.3699699940000016   F   F   F
  0.9164199829999973  0.3147499860000025  0.3707099849999977   F   F   F
  0.9102399949999977  0.6671199800000025  0.3791399899999988   F   F   F
 
  0.00000000E+00  0.00000000E+00  0.00000000E+00
  0.00000000E+00  0.00000000E+00  0.00000000E+00
  0.00000000E+00  0.00000000E+00  0.00000000E+00
  0.00000000E+00  0.00000000E+00  0.00000000E+00
  0.00000000E+00  0.00000000E+00  0.00000000E+00
  0.00000000E+00  0.00000000E+00  0.00000000E+00
  0.00000000E+00  0.00000000E+00  0.00000000E+00
  0.00000000E+00  0.00000000E+00  0.00000000E+00
  0.00000000E+00  0.00000000E+00  0.00000000E+00
  0.00000000E+00  0.00000000E+00  0.00000000E+00
  0.00000000E+00  0.00000000E+00  0.00000000E+00
  0.00000000E+00  0.00000000E+00  0.00000000E+00
  0.00000000E+00  0.00000000E+00  0.00000000E+00
  0.00000000E+00  0.00000000E+00  0.00000000E+00
  0.00000000E+00  0.00000000E+00  0.00000000E+00
  0.00000000E+00  0.00000000E+00  0.00000000E+00
  0.00000000E+00  0.00000000E+00  0.00000000E+00
  0.00000000E+00  0.00000000E+00  0.00000000E+00
  0.00000000E+00  0.00000000E+00  0.00000000E+00
  0.00000000E+00  0.00000000E+00  0.00000000E+00
  0.00000000E+00  0.00000000E+00  0.00000000E+00
  0.00000000E+00  0.00000000E+00  0.00000000E+00
  0.00000000E+00  0.00000000E+00  0.00000000E+00
  0.00000000E+00  0.00000000E+00  0.00000000E+00
  0.00000000E+00  0.00000000E+00  0.00000000E+00
  0.00000000E+00  0.00000000E+00  0.00000000E+00
  0.00000000E+00  0.00000000E+00  0.00000000E+00
  0.00000000E+00  0.00000000E+00  0.00000000E+00
  0.00000000E+00  0.00000000E+00  0.00000000E+00
  0.00000000E+00  0.00000000E+00  0.00000000E+00
  0.00000000E+00  0.00000000E+00  0.00000000E+00
  0.00000000E+00  0.00000000E+00  0.00000000E+00
  0.00000000E+00  0.00000000E+00  0.00000000E+00
  0.00000000E+00  0.00000000E+00  0.00000000E+00
  0.00000000E+00  0.00000000E+00  0.00000000E+00
  0.00000000E+00  0.00000000E+00  0.00000000E+00
  0.00000000E+00  0.00000000E+00  0.00000000E+00
  0.00000000E+00  0.00000000E+00  0.00000000E+00
  0.00000000E+00  0.00000000E+00  0.00000000E+00
  0.00000000E+00  0.00000000E+00  0.00000000E+00
  0.00000000E+00  0.00000000E+00  0.00000000E+00
  0.00000000E+00  0.00000000E+00  0.00000000E+00
  0.00000000E+00  0.00000000E+00  0.00000000E+00
  0.00000000E+00  0.00000000E+00  0.00000000E+00
  0.00000000E+00  0.00000000E+00  0.00000000E+00
  0.00000000E+00  0.00000000E+00  0.00000000E+00
  0.00000000E+00  0.00000000E+00  0.00000000E+00
  0.00000000E+00  0.00000000E+00  0.00000000E+00
  0.00000000E+00  0.00000000E+00  0.00000000E+00
  0.00000000E+00  0.00000000E+00  0.00000000E+00
  0.00000000E+00  0.00000000E+00  0.00000000E+00
  0.00000000E+00  0.00000000E+00  0.00000000E+00
  0.00000000E+00  0.00000000E+00  0.00000000E+00
  0.00000000E+00  0.00000000E+00  0.00000000E+00
  0.00000000E+00  0.00000000E+00  0.00000000E+00
  0.00000000E+00  0.00000000E+00  0.00000000E+00
  0.00000000E+00  0.00000000E+00  0.00000000E+00
  0.00000000E+00  0.00000000E+00  0.00000000E+00
  0.00000000E+00  0.00000000E+00  0.00000000E+00
  0.00000000E+00  0.00000000E+00  0.00000000E+00
  0.00000000E+00  0.00000000E+00  0.00000000E+00
  0.00000000E+00  0.00000000E+00  0.00000000E+00
  0.00000000E+00  0.00000000E+00  0.00000000E+00
  0.00000000E+00  0.00000000E+00  0.00000000E+00
  0.00000000E+00  0.00000000E+00  0.00000000E+00
  0.00000000E+00  0.00000000E+00  0.00000000E+00
  0.00000000E+00  0.00000000E+00  0.00000000E+00
  0.00000000E+00  0.00000000E+00  0.00000000E+00
  0.00000000E+00  0.00000000E+00  0.00000000E+00
  0.00000000E+00  0.00000000E+00  0.00000000E+00
  0.00000000E+00  0.00000000E+00  0.00000000E+00
  0.00000000E+00  0.00000000E+00  0.00000000E+00
  0.00000000E+00  0.00000000E+00  0.00000000E+00
  0.00000000E+00  0.00000000E+00  0.00000000E+00
  0.00000000E+00  0.00000000E+00  0.00000000E+00
  0.00000000E+00  0.00000000E+00  0.00000000E+00
  0.00000000E+00  0.00000000E+00  0.00000000E+00
  0.00000000E+00  0.00000000E+00  0.00000000E+00
  0.00000000E+00  0.00000000E+00  0.00000000E+00
  0.00000000E+00  0.00000000E+00  0.00000000E+00
  0.00000000E+00  0.00000000E+00  0.00000000E+00
  0.00000000E+00  0.00000000E+00  0.00000000E+00
  0.00000000E+00  0.00000000E+00  0.00000000E+00
  0.00000000E+00  0.00000000E+00  0.00000000E+00
  0.00000000E+00  0.00000000E+00  0.00000000E+00
  0.00000000E+00  0.00000000E+00  0.00000000E+00
  0.00000000E+00  0.00000000E+00  0.00000000E+00
  0.00000000E+00  0.00000000E+00  0.00000000E+00
  0.00000000E+00  0.00000000E+00  0.00000000E+00
  0.00000000E+00  0.00000000E+00  0.00000000E+00
  0.00000000E+00  0.00000000E+00  0.00000000E+00
  0.00000000E+00  0.00000000E+00  0.00000000E+00
  0.00000000E+00  0.00000000E+00  0.00000000E+00
  0.00000000E+00  0.00000000E+00  0.00000000E+00
  0.00000000E+00  0.00000000E+00  0.00000000E+00
  0.00000000E+00  0.00000000E+00  0.00000000E+00
  0.00000000E+00  0.00000000E+00  0.00000000E+00
  0.00000000E+00  0.00000000E+00  0.00000000E+00
  0.00000000E+00  0.00000000E+00  0.00000000E+00
  0.00000000E+00  0.00000000E+00  0.00000000E+00
  0.00000000E+00  0.00000000E+00  0.00000000E+00
  0.00000000E+00  0.00000000E+00  0.00000000E+00
  0.00000000E+00  0.00000000E+00  0.00000000E+00
  0.00000000E+00  0.00000000E+00  0.00000000E+00
  0.00000000E+00  0.00000000E+00  0.00000000E+00
  0.00000000E+00  0.00000000E+00  0.00000000E+00
  0.00000000E+00  0.00000000E+00  0.00000000E+00
  0.00000000E+00  0.00000000E+00  0.00000000E+00
  0.00000000E+00  0.00000000E+00  0.00000000E+00
  0.00000000E+00  0.00000000E+00  0.00000000E+00
  0.00000000E+00  0.00000000E+00  0.00000000E+00
  0.00000000E+00  0.00000000E+00  0.00000000E+00
  0.00000000E+00  0.00000000E+00  0.00000000E+00
  0.00000000E+00  0.00000000E+00  0.00000000E+00
  0.00000000E+00  0.00000000E+00  0.00000000E+00
  0.00000000E+00  0.00000000E+00  0.00000000E+00
  0.00000000E+00  0.00000000E+00  0.00000000E+00
  0.00000000E+00  0.00000000E+00  0.00000000E+00
  0.00000000E+00  0.00000000E+00  0.00000000E+00
  0.00000000E+00  0.00000000E+00  0.00000000E+00
  0.00000000E+00  0.00000000E+00  0.00000000E+00
  0.00000000E+00  0.00000000E+00  0.00000000E+00
  0.00000000E+00  0.00000000E+00  0.00000000E+00
  0.00000000E+00  0.00000000E+00  0.00000000E+00
  0.00000000E+00  0.00000000E+00  0.00000000E+00
  0.00000000E+00  0.00000000E+00  0.00000000E+00
  0.00000000E+00  0.00000000E+00  0.00000000E+00
  0.00000000E+00  0.00000000E+00  0.00000000E+00
  0.00000000E+00  0.00000000E+00  0.00000000E+00
  0.00000000E+00  0.00000000E+00  0.00000000E+00
  0.00000000E+00  0.00000000E+00  0.00000000E+00
  0.00000000E+00  0.00000000E+00  0.00000000E+00
  0.00000000E+00  0.00000000E+00  0.00000000E+00
  0.00000000E+00  0.00000000E+00  0.00000000E+00
  0.00000000E+00  0.00000000E+00  0.00000000E+00
  0.00000000E+00  0.00000000E+00  0.00000000E+00
  0.00000000E+00  0.00000000E+00  0.00000000E+00
  0.00000000E+00  0.00000000E+00  0.00000000E+00
  0.00000000E+00  0.00000000E+00  0.00000000E+00
  0.00000000E+00  0.00000000E+00  0.00000000E+00
  0.00000000E+00  0.00000000E+00  0.00000000E+00
  0.00000000E+00  0.00000000E+00  0.00000000E+00
  0.00000000E+00  0.00000000E+00  0.00000000E+00
  0.00000000E+00  0.00000000E+00  0.00000000E+00
  0.00000000E+00  0.00000000E+00  0.00000000E+00
  0.00000000E+00  0.00000000E+00  0.00000000E+00
  0.00000000E+00  0.00000000E+00  0.00000000E+00
  0.00000000E+00  0.00000000E+00  0.00000000E+00
  0.00000000E+00  0.00000000E+00  0.00000000E+00
  0.00000000E+00  0.00000000E+00  0.00000000E+00
  0.00000000E+00  0.00000000E+00  0.00000000E+00
  0.00000000E+00  0.00000000E+00  0.00000000E+00
  0.00000000E+00  0.00000000E+00  0.00000000E+00
  0.00000000E+00  0.00000000E+00  0.00000000E+00
  0.00000000E+00  0.00000000E+00  0.00000000E+00
  0.00000000E+00  0.00000000E+00  0.00000000E+00
  0.00000000E+00  0.00000000E+00  0.00000000E+00
  0.00000000E+00  0.00000000E+00  0.00000000E+00
  0.00000000E+00  0.00000000E+00  0.00000000E+00
  0.00000000E+00  0.00000000E+00  0.00000000E+00
  0.00000000E+00  0.00000000E+00  0.00000000E+00
  0.00000000E+00  0.00000000E+00  0.00000000E+00
  0.00000000E+00  0.00000000E+00  0.00000000E+00
  0.00000000E+00  0.00000000E+00  0.00000000E+00
  0.00000000E+00  0.00000000E+00  0.00000000E+00
  0.00000000E+00  0.00000000E+00  0.00000000E+00
  0.00000000E+00  0.00000000E+00  0.00000000E+00
  0.00000000E+00  0.00000000E+00  0.00000000E+00
  0.00000000E+00  0.00000000E+00  0.00000000E+00
  0.00000000E+00  0.00000000E+00  0.00000000E+00
  0.00000000E+00  0.00000000E+00  0.00000000E+00
  0.00000000E+00  0.00000000E+00  0.00000000E+00
  0.00000000E+00  0.00000000E+00  0.00000000E+00
  0.00000000E+00  0.00000000E+00  0.00000000E+00
  0.00000000E+00  0.00000000E+00  0.00000000E+00
  0.00000000E+00  0.00000000E+00  0.00000000E+00
