 CONTCAR1                               
   1.00000000000000     
    34.0000000000000000    0.0000000000000000    0.0000000000000000
     0.0000000000000000    8.7300004959000006    0.0000000000000000
     0.0000000000000000    0.0000000000000000   23.0000000000000000
   Mo   N    Si
    24   104    48
Selective dynamics
Direct
  0.3775207694452095  0.0010301950935048  0.4887537434983600   T   T   T
  0.3759409402546206  0.3334345831785705  0.5003327504266178   T   T   T
  0.3776209342283404  0.6653074267427727  0.5113736715414010   T   T   T
  0.4509358659235720  0.1656797937134571  0.5008690558440032   T   T   T
  0.4509314402428060  0.5011018132339097  0.4992279125489475   T   T   T
  0.4495206840364744  0.8332429561540441  0.4999875419905753   T   T   T
  0.5227786229255108  0.9994643597130847  0.5003746388580138   T   T   T
  0.5231429641014949  0.3333549356336538  0.4999080269409170   T   T   T
  0.5227974444434277  0.6672161734760819  0.4994063350597809   T   T   T
  0.5962921018655483  0.1664505920984326  0.5000833129609162   T   T   T
  0.5962993013636290  0.5002211368006754  0.4995999101378716   T   T   T
  0.5961747523321108  0.8333415443198807  0.4998337452604462   T   T   T
  0.6700858995203981  0.9999198155439037  0.4999188048448941   T   T   T
  0.6700871381028372  0.3333239509711274  0.4998633231345553   T   T   T
  0.6700842402615724  0.6667412233386973  0.4998020765550113   T   T   T
  0.7442638862764773  0.1667763551413565  0.4998750129068669   T   T   T
  0.7442639415780229  0.4998776025043641  0.4999654029233035   T   T   T
  0.7442715705145867  0.8333135352732062  0.4999190480273919   T   T   T
  0.8188423510000007  0.0003427910000013  0.4994643929999967   F   F   F
  0.8190020320000002  0.3333233299999989  0.4999875720000020   F   F   F
  0.8188459280000018  0.6662959459999982  0.5005124210000034   F   F   F
  0.8951121569999998  0.1683875769999972  0.4972387850000004   F   F   F
  0.8951119179999978  0.4982427950000030  0.5027663110000020   F   F   F
  0.8945530060000024  0.8333178159999974  0.5000079269999986   F   F   F
  0.3990297056360242  0.1512068261468762  0.5467851525732558   T   T   T
  0.4053139746559197  0.4991899094791009  0.5517053062559327   T   T   T
  0.4001907372348967  0.8468028575013672  0.5510878447233053   T   T   T
  0.4051999419519390  0.1685238338583717  0.4487197749379648   T   T   T
  0.3989956420772270  0.5148759475116798  0.4533809269095349   T   T   T
  0.3999870819512145  0.8183600074574574  0.4492210612846103   T   T   T
  0.4234543477175308  0.0078663737954238  0.3478043056007367   T   T   T
  0.4225418854178881  0.3288212053400806  0.3483905824448263   T   T   T
  0.4150288762476625  0.6659746106475767  0.3516836047795003   T   T   T
  0.4151278836471907  0.0005839917308370  0.6484542623516525   T   T   T
  0.4225563405357918  0.3379569530512654  0.6517193962677785   T   T   T
  0.4237857651376542  0.6588756889289035  0.6525040470975698   T   T   T
  0.4729809143230689  0.9990397256015976  0.5550902598181862   T   T   T
  0.4742703330862768  0.3341528255768908  0.5546470134079134   T   T   T
  0.4740736631396674  0.6668773398568287  0.5543486096344507   T   T   T
  0.4739609306227505  0.9999439546365807  0.4455919008335349   T   T   T
  0.4742060084327938  0.3325570185751289  0.4453484789495786   T   T   T
  0.4729387638620329  0.6675417279136134  0.4448468732214625   T   T   T
  0.4975071896344242  0.1671238264427932  0.3473431229199992   T   T   T
  0.4950769845007107  0.5022073527627146  0.3473815740694136   T   T   T
  0.4952233643042229  0.8312626302210525  0.3473460627356085   T   T   T
  0.4951266413075092  0.1644957468425912  0.6525045731659795   T   T   T
  0.4976310495764348  0.4995095432830374  0.6525274406314557   T   T   T
  0.4953753270247774  0.8355539378475670  0.6525392999328706   T   T   T
  0.5469445706407744  0.1663990097103590  0.5545766465155375   T   T   T
  0.5472861633150230  0.5006439326541865  0.5539276779491563   T   T   T
  0.5468559593160969  0.8329270535961408  0.5543830208840722   T   T   T
  0.5472382398112633  0.1660540856878237  0.4458121951304779   T   T   T
  0.5469248336680207  0.5002510552547084  0.4451652372422742   T   T   T
  0.5468145983906280  0.8337831596183093  0.4453396289791589   T   T   T
  0.5703819417903840  0.9988574606154197  0.3476013733048676   T   T   T
  0.5703956598618155  0.3346134507702411  0.3475942415589193   T   T   T
  0.5702592276799596  0.6667370175526087  0.3472474285684308   T   T   T
  0.5703036744275239  0.0000110674683683  0.6524543171464442   T   T   T
  0.5704309719275381  0.3320234942870453  0.6521154363622249   T   T   T
  0.5704257568252264  0.6678343662720638  0.6521020375570825   T   T   T
  0.6206687365192616  0.9997326745562027  0.5542664250725566   T   T   T
  0.6207101196157351  0.3334822487560185  0.5541150804106770   T   T   T
  0.6206861190090229  0.6667724020515758  0.5540444511487943   T   T   T
  0.6206872263059975  0.9999114000104655  0.4456331409868852   T   T   T
  0.6207126414644472  0.3331756736951284  0.4455672190042472   T   T   T
  0.6206698411350789  0.6669344714270963  0.4454023693718603   T   T   T
  0.6443989373110458  0.1666786919073375  0.3476217959735791   T   T   T
  0.6446181842340578  0.5002488415518559  0.3475282961997691   T   T   T
  0.6446043531790180  0.8331850665620502  0.3474985550351904   T   T   T
  0.6446045133647029  0.1664196839568120  0.6521735451936874   T   T   T
  0.6443799078986880  0.4999804206557011  0.6520785897758343   T   T   T
  0.6445868395706515  0.8335029998186697  0.6521991303657542   T   T   T
  0.6946833505252057  0.1666793948072235  0.5540780170869550   T   T   T
  0.6946176543898154  0.5000095874871870  0.5540765402844119   T   T   T
  0.6946805433505808  0.8332581474289803  0.5541015595259313   T   T   T
  0.6946415798137903  0.1666469123100580  0.4456782413994204   T   T   T
  0.6947047767203637  0.4999732313440960  0.4456815132955684   T   T   T
  0.6947030625965740  0.8333904549950417  0.4456536559858977   T   T   T
  0.7184954202536383  0.0003413249726061  0.3476578244913203   T   T   T
  0.7185614148510687  0.3331350766796171  0.3477854417037269   T   T   T
  0.7186200044984417  0.6666807279188403  0.3478288800246248   T   T   T
  0.7185602516699654  0.9999687016032326  0.6519739106559507   T   T   T
  0.7185054596011218  0.3335313423072902  0.6520216463319509   T   T   T
  0.7184394608748494  0.6663033991099493  0.6521538000953920   T   T   T
  0.7690241362219324  0.0001533456199478  0.5537494687794022   T   T   T
  0.7689876891849333  0.3333340444134872  0.5539605579057468   T   T   T
  0.7688422235495728  0.6664156930986721  0.5541763555998462   T   T   T
  0.7688711710895078  0.0002203997885819  0.4457202283456210   T   T   T
  0.7690180041729604  0.3333219501259643  0.4459295656162982   T   T   T
  0.7690578951953889  0.6664805675434478  0.4461296564799536   T   T   T
  0.7926224493789232  0.1668181128060313  0.3477561816897745   T   T   T
  0.7922253322554643  0.4997182991368523  0.3485836317227524   T   T   T
  0.7920528799520007  0.8337670496119965  0.3481137115275421   T   T   T
  0.7921371086463378  0.1669158013705931  0.6513441642492642   T   T   T
  0.7925482536533958  0.4998197046694910  0.6521837329775543   T   T   T
  0.7919651923231729  0.8329008328633185  0.6518216443915804   T   T   T
  0.8439134360000011  0.1662110389999967  0.5525382759999999   F   F   F
  0.8436148759999966  0.4992736880000024  0.5547123549999995   F   F   F
  0.8433737160000021  0.8342209460000021  0.5534723999999969   F   F   F
  0.8436358570000024  0.1673528549999972  0.4452764389999970   F   F   F
  0.8439402580000035  0.5004197960000027  0.4474489389999974   F   F   F
  0.8434005980000023  0.8324245809999979  0.4465213120000016   F   F   F
  0.8661655189999991  0.9976842399999981  0.3464556930000029   F   F   F
  0.8662632699999975  0.3364263180000009  0.3470726010000007   F   F   F
  0.8643996719999976  0.6666814089999988  0.3483600910000035   F   F   F
  0.8643062109999988  0.9999421830000017  0.6516487000000026   F   F   F
  0.8661832809999979  0.3301724789999980  0.6529155970000033   F   F   F
  0.8660825489999979  0.6689571140000012  0.6535364989999977   F   F   F
  0.9184672239999969  0.0021528689999997  0.5506310459999995   F   F   F
  0.9167721270000015  0.3250577450000023  0.5553163889999979   F   F   F
  0.9171662930000011  0.6756069059999987  0.5565012100000004   F   F   F
  0.9171988370000008  0.9910517929999969  0.4435239139999965   F   F   F
  0.9167994259999972  0.3415859340000011  0.4446931180000036   F   F   F
  0.9185072779999999  0.6644828920000023  0.4494082329999998   F   F   F
  0.9389228820000000  0.1676476900000026  0.3408273160000022   F   F   F
  0.9384976030000018  0.5160663719999974  0.3410056829999988   F   F   F
  0.9384040240000004  0.8176866769999975  0.3404786290000033   F   F   F
  0.9384207129999993  0.1505697520000027  0.6589783430000011   F   F   F
  0.9388426539999983  0.4989865120000019  0.6591874360000034   F   F   F
  0.9383348229999982  0.8489654660000028  0.6595321889999965   F   F   F
  0.3582564095005993  0.3260144457552553  0.5978785963787759   T   T   T
  0.3571664652542033  0.6695605142175793  0.6074545170091125   T   T   T
  0.3573750015182123  0.9971362853179838  0.3942066577902675   T   T   T
  0.3580220004514883  0.3407513826781856  0.4016826978555410   T   T   T
  0.9651644354986654  0.1165783570870266  0.6906993183378750   T   T   T
  0.9649443615467271  0.8838374910396664  0.6914098282881521   T   T   T
  0.9649963110716517  0.7828496353679057  0.3085682690609558   T   T   T
  0.9652248572581764  0.5500708996323033  0.3092601065569694   T   T   T
  0.3953302524259759  0.1886481013439976  0.6213363954406648   T   T   T
  0.3893532417350370  0.4993935492952634  0.6236736405669954   T   T   T
  0.3952572988859943  0.8072687924899977  0.6250607408039506   T   T   T
  0.3892923674778010  0.1685664716169439  0.3767643950540435   T   T   T
  0.3951997542649563  0.4777082665215191  0.3788510657123420   T   T   T
  0.3952644948620980  0.8586314118005934  0.3754086073385651   T   T   T
  0.4678467211325020  0.9997144005071892  0.6319959101923859   T   T   T
  0.4713507163944155  0.3355322523168250  0.6322414502998335   T   T   T
  0.4719584193233774  0.6643498700457051  0.6319730166956004   T   T   T
  0.4717804570165616  0.0024497559714883  0.3679976871957955   T   T   T
  0.4713125754668945  0.3312440968298904  0.3677581673841028   T   T   T
  0.4677939192383383  0.6668840124934211  0.3679838172935108   T   T   T
  0.5449454750962544  0.1654176286216138  0.6307633335464078   T   T   T
  0.5463684654716060  0.4998102722037899  0.6300986690037963   T   T   T
  0.5450695088515193  0.8346265180481025  0.6306562439683427   T   T   T
  0.5463040469942666  0.1668391416298639  0.3696374548512552   T   T   T
  0.5449324334906436  0.5012752486726370  0.3689864677762305   T   T   T
  0.5449945314481606  0.8321188903371712  0.3690787778763637   T   T   T
  0.6197542162797565  0.9999774655061422  0.6303011277144547   T   T   T
  0.6198258092783456  0.3326759653676532  0.6301539103878986   T   T   T
  0.6198182276359309  0.6672583404950051  0.6301207165155440   T   T   T
  0.6198064209939071  0.9994207586203281  0.3695627675873150   T   T   T
  0.6198204390903689  0.3339664138835801  0.3695290089765166   T   T   T
  0.6197448467210822  0.6667235434545836  0.3693640849796760   T   T   T
  0.6939487211670355  0.1666594318679230  0.6300418067106925   T   T   T
  0.6937694924420827  0.4999393875548125  0.6300565744023588   T   T   T
  0.6939323135064807  0.8332217181888808  0.6300872746513899   T   T   T
  0.6937980581267569  0.1667215905641795  0.3696919923188973   T   T   T
  0.6939753464091439  0.5000081308964074  0.3697196979876213   T   T   T
  0.6939591891627584  0.8334115613319522  0.3696671268263298   T   T   T
  0.7677587716782520  0.9999018189543074  0.6296148805351475   T   T   T
  0.7678174294898912  0.3340632743908018  0.6298787083870905   T   T   T
  0.7677579036271674  0.6657135966283849  0.6301063143145955   T   T   T
  0.7678089638235913  0.0009333169766414  0.3697971217849425   T   T   T
  0.7678722409397289  0.3325885977991865  0.3700085807668700   T   T   T
  0.7678250581506690  0.6667536801607842  0.3702461827372456   T   T   T
  0.8410534859999999  0.1696666779999987  0.6286459570000034   F   F   F
  0.8423639539999996  0.4997380080000013  0.6315810079999977   F   F   F
  0.8409459590000026  0.8298156259999985  0.6295070649999985   F   F   F
  0.8424386379999973  0.1668675989999997  0.3684096040000000   F   F   F
  0.8411439659999971  0.4969319109999972  0.3713388440000003   F   F   F
  0.8410356039999982  0.8368282320000020  0.3704872129999970   F   F   F
  0.9101534489999992  0.9994701740000025  0.6208910940000010   F   F   F
  0.9163511989999975  0.3518715800000010  0.6293010119999991   F   F   F
  0.9163957829999987  0.6473817230000023  0.6300541760000016   F   F   F
  0.9164691570000016  0.0192699340000004  0.3699669240000034   F   F   F
  0.9164217109999981  0.3147504029999979  0.3707084360000010   F   F   F
  0.9102423790000032  0.6671208739999983  0.3791416290000029   F   F   F
 
  0.00000000E+00  0.00000000E+00  0.00000000E+00
  0.00000000E+00  0.00000000E+00  0.00000000E+00
  0.00000000E+00  0.00000000E+00  0.00000000E+00
  0.00000000E+00  0.00000000E+00  0.00000000E+00
  0.00000000E+00  0.00000000E+00  0.00000000E+00
  0.00000000E+00  0.00000000E+00  0.00000000E+00
  0.00000000E+00  0.00000000E+00  0.00000000E+00
  0.00000000E+00  0.00000000E+00  0.00000000E+00
  0.00000000E+00  0.00000000E+00  0.00000000E+00
  0.00000000E+00  0.00000000E+00  0.00000000E+00
  0.00000000E+00  0.00000000E+00  0.00000000E+00
  0.00000000E+00  0.00000000E+00  0.00000000E+00
  0.00000000E+00  0.00000000E+00  0.00000000E+00
  0.00000000E+00  0.00000000E+00  0.00000000E+00
  0.00000000E+00  0.00000000E+00  0.00000000E+00
  0.00000000E+00  0.00000000E+00  0.00000000E+00
  0.00000000E+00  0.00000000E+00  0.00000000E+00
  0.00000000E+00  0.00000000E+00  0.00000000E+00
  0.00000000E+00  0.00000000E+00  0.00000000E+00
  0.00000000E+00  0.00000000E+00  0.00000000E+00
  0.00000000E+00  0.00000000E+00  0.00000000E+00
  0.00000000E+00  0.00000000E+00  0.00000000E+00
  0.00000000E+00  0.00000000E+00  0.00000000E+00
  0.00000000E+00  0.00000000E+00  0.00000000E+00
  0.00000000E+00  0.00000000E+00  0.00000000E+00
  0.00000000E+00  0.00000000E+00  0.00000000E+00
  0.00000000E+00  0.00000000E+00  0.00000000E+00
  0.00000000E+00  0.00000000E+00  0.00000000E+00
  0.00000000E+00  0.00000000E+00  0.00000000E+00
  0.00000000E+00  0.00000000E+00  0.00000000E+00
  0.00000000E+00  0.00000000E+00  0.00000000E+00
  0.00000000E+00  0.00000000E+00  0.00000000E+00
  0.00000000E+00  0.00000000E+00  0.00000000E+00
  0.00000000E+00  0.00000000E+00  0.00000000E+00
  0.00000000E+00  0.00000000E+00  0.00000000E+00
  0.00000000E+00  0.00000000E+00  0.00000000E+00
  0.00000000E+00  0.00000000E+00  0.00000000E+00
  0.00000000E+00  0.00000000E+00  0.00000000E+00
  0.00000000E+00  0.00000000E+00  0.00000000E+00
  0.00000000E+00  0.00000000E+00  0.00000000E+00
  0.00000000E+00  0.00000000E+00  0.00000000E+00
  0.00000000E+00  0.00000000E+00  0.00000000E+00
  0.00000000E+00  0.00000000E+00  0.00000000E+00
  0.00000000E+00  0.00000000E+00  0.00000000E+00
  0.00000000E+00  0.00000000E+00  0.00000000E+00
  0.00000000E+00  0.00000000E+00  0.00000000E+00
  0.00000000E+00  0.00000000E+00  0.00000000E+00
  0.00000000E+00  0.00000000E+00  0.00000000E+00
  0.00000000E+00  0.00000000E+00  0.00000000E+00
  0.00000000E+00  0.00000000E+00  0.00000000E+00
  0.00000000E+00  0.00000000E+00  0.00000000E+00
  0.00000000E+00  0.00000000E+00  0.00000000E+00
  0.00000000E+00  0.00000000E+00  0.00000000E+00
  0.00000000E+00  0.00000000E+00  0.00000000E+00
  0.00000000E+00  0.00000000E+00  0.00000000E+00
  0.00000000E+00  0.00000000E+00  0.00000000E+00
  0.00000000E+00  0.00000000E+00  0.00000000E+00
  0.00000000E+00  0.00000000E+00  0.00000000E+00
  0.00000000E+00  0.00000000E+00  0.00000000E+00
  0.00000000E+00  0.00000000E+00  0.00000000E+00
  0.00000000E+00  0.00000000E+00  0.00000000E+00
  0.00000000E+00  0.00000000E+00  0.00000000E+00
  0.00000000E+00  0.00000000E+00  0.00000000E+00
  0.00000000E+00  0.00000000E+00  0.00000000E+00
  0.00000000E+00  0.00000000E+00  0.00000000E+00
  0.00000000E+00  0.00000000E+00  0.00000000E+00
  0.00000000E+00  0.00000000E+00  0.00000000E+00
  0.00000000E+00  0.00000000E+00  0.00000000E+00
  0.00000000E+00  0.00000000E+00  0.00000000E+00
  0.00000000E+00  0.00000000E+00  0.00000000E+00
  0.00000000E+00  0.00000000E+00  0.00000000E+00
  0.00000000E+00  0.00000000E+00  0.00000000E+00
  0.00000000E+00  0.00000000E+00  0.00000000E+00
  0.00000000E+00  0.00000000E+00  0.00000000E+00
  0.00000000E+00  0.00000000E+00  0.00000000E+00
  0.00000000E+00  0.00000000E+00  0.00000000E+00
  0.00000000E+00  0.00000000E+00  0.00000000E+00
  0.00000000E+00  0.00000000E+00  0.00000000E+00
  0.00000000E+00  0.00000000E+00  0.00000000E+00
  0.00000000E+00  0.00000000E+00  0.00000000E+00
  0.00000000E+00  0.00000000E+00  0.00000000E+00
  0.00000000E+00  0.00000000E+00  0.00000000E+00
  0.00000000E+00  0.00000000E+00  0.00000000E+00
  0.00000000E+00  0.00000000E+00  0.00000000E+00
  0.00000000E+00  0.00000000E+00  0.00000000E+00
  0.00000000E+00  0.00000000E+00  0.00000000E+00
  0.00000000E+00  0.00000000E+00  0.00000000E+00
  0.00000000E+00  0.00000000E+00  0.00000000E+00
  0.00000000E+00  0.00000000E+00  0.00000000E+00
  0.00000000E+00  0.00000000E+00  0.00000000E+00
  0.00000000E+00  0.00000000E+00  0.00000000E+00
  0.00000000E+00  0.00000000E+00  0.00000000E+00
  0.00000000E+00  0.00000000E+00  0.00000000E+00
  0.00000000E+00  0.00000000E+00  0.00000000E+00
  0.00000000E+00  0.00000000E+00  0.00000000E+00
  0.00000000E+00  0.00000000E+00  0.00000000E+00
  0.00000000E+00  0.00000000E+00  0.00000000E+00
  0.00000000E+00  0.00000000E+00  0.00000000E+00
  0.00000000E+00  0.00000000E+00  0.00000000E+00
  0.00000000E+00  0.00000000E+00  0.00000000E+00
  0.00000000E+00  0.00000000E+00  0.00000000E+00
  0.00000000E+00  0.00000000E+00  0.00000000E+00
  0.00000000E+00  0.00000000E+00  0.00000000E+00
  0.00000000E+00  0.00000000E+00  0.00000000E+00
  0.00000000E+00  0.00000000E+00  0.00000000E+00
  0.00000000E+00  0.00000000E+00  0.00000000E+00
  0.00000000E+00  0.00000000E+00  0.00000000E+00
  0.00000000E+00  0.00000000E+00  0.00000000E+00
  0.00000000E+00  0.00000000E+00  0.00000000E+00
  0.00000000E+00  0.00000000E+00  0.00000000E+00
  0.00000000E+00  0.00000000E+00  0.00000000E+00
  0.00000000E+00  0.00000000E+00  0.00000000E+00
  0.00000000E+00  0.00000000E+00  0.00000000E+00
  0.00000000E+00  0.00000000E+00  0.00000000E+00
  0.00000000E+00  0.00000000E+00  0.00000000E+00
  0.00000000E+00  0.00000000E+00  0.00000000E+00
  0.00000000E+00  0.00000000E+00  0.00000000E+00
  0.00000000E+00  0.00000000E+00  0.00000000E+00
  0.00000000E+00  0.00000000E+00  0.00000000E+00
  0.00000000E+00  0.00000000E+00  0.00000000E+00
  0.00000000E+00  0.00000000E+00  0.00000000E+00
  0.00000000E+00  0.00000000E+00  0.00000000E+00
  0.00000000E+00  0.00000000E+00  0.00000000E+00
  0.00000000E+00  0.00000000E+00  0.00000000E+00
  0.00000000E+00  0.00000000E+00  0.00000000E+00
  0.00000000E+00  0.00000000E+00  0.00000000E+00
  0.00000000E+00  0.00000000E+00  0.00000000E+00
  0.00000000E+00  0.00000000E+00  0.00000000E+00
  0.00000000E+00  0.00000000E+00  0.00000000E+00
  0.00000000E+00  0.00000000E+00  0.00000000E+00
  0.00000000E+00  0.00000000E+00  0.00000000E+00
  0.00000000E+00  0.00000000E+00  0.00000000E+00
  0.00000000E+00  0.00000000E+00  0.00000000E+00
  0.00000000E+00  0.00000000E+00  0.00000000E+00
  0.00000000E+00  0.00000000E+00  0.00000000E+00
  0.00000000E+00  0.00000000E+00  0.00000000E+00
  0.00000000E+00  0.00000000E+00  0.00000000E+00
  0.00000000E+00  0.00000000E+00  0.00000000E+00
  0.00000000E+00  0.00000000E+00  0.00000000E+00
  0.00000000E+00  0.00000000E+00  0.00000000E+00
  0.00000000E+00  0.00000000E+00  0.00000000E+00
  0.00000000E+00  0.00000000E+00  0.00000000E+00
  0.00000000E+00  0.00000000E+00  0.00000000E+00
  0.00000000E+00  0.00000000E+00  0.00000000E+00
  0.00000000E+00  0.00000000E+00  0.00000000E+00
  0.00000000E+00  0.00000000E+00  0.00000000E+00
  0.00000000E+00  0.00000000E+00  0.00000000E+00
  0.00000000E+00  0.00000000E+00  0.00000000E+00
  0.00000000E+00  0.00000000E+00  0.00000000E+00
  0.00000000E+00  0.00000000E+00  0.00000000E+00
  0.00000000E+00  0.00000000E+00  0.00000000E+00
  0.00000000E+00  0.00000000E+00  0.00000000E+00
  0.00000000E+00  0.00000000E+00  0.00000000E+00
  0.00000000E+00  0.00000000E+00  0.00000000E+00
  0.00000000E+00  0.00000000E+00  0.00000000E+00
  0.00000000E+00  0.00000000E+00  0.00000000E+00
  0.00000000E+00  0.00000000E+00  0.00000000E+00
  0.00000000E+00  0.00000000E+00  0.00000000E+00
  0.00000000E+00  0.00000000E+00  0.00000000E+00
  0.00000000E+00  0.00000000E+00  0.00000000E+00
  0.00000000E+00  0.00000000E+00  0.00000000E+00
  0.00000000E+00  0.00000000E+00  0.00000000E+00
  0.00000000E+00  0.00000000E+00  0.00000000E+00
  0.00000000E+00  0.00000000E+00  0.00000000E+00
  0.00000000E+00  0.00000000E+00  0.00000000E+00
  0.00000000E+00  0.00000000E+00  0.00000000E+00
  0.00000000E+00  0.00000000E+00  0.00000000E+00
  0.00000000E+00  0.00000000E+00  0.00000000E+00
  0.00000000E+00  0.00000000E+00  0.00000000E+00
  0.00000000E+00  0.00000000E+00  0.00000000E+00
  0.00000000E+00  0.00000000E+00  0.00000000E+00
  0.00000000E+00  0.00000000E+00  0.00000000E+00
  0.00000000E+00  0.00000000E+00  0.00000000E+00
  0.00000000E+00  0.00000000E+00  0.00000000E+00
  0.00000000E+00  0.00000000E+00  0.00000000E+00
  0.00000000E+00  0.00000000E+00  0.00000000E+00
