POSCAR_FIX
1.0
       34.0000000000         0.0000000000         0.0000000000
        0.0000000000         8.7299995422         0.0000000000
        0.0000000000         0.0000000000        23.0000000000
   Mo    N   Si
   24  104   48
Direct
     0.377499998         0.000010000         0.503859997
     0.377510011         0.333339989         0.503840029
     0.377510011         0.666670024         0.503840029
     0.453070015         0.166669995         0.499260008
     0.453070015         0.500010014         0.499260008
     0.453070015         0.833339989         0.499260008
     0.524169981         0.000000000         0.499779999
     0.524179995         0.333339989         0.499779999
     0.524179995         0.666679978         0.499779999
     0.596780002         0.166659996         0.499779999
     0.596780002         0.500010014         0.499779999
     0.596790016         0.833339989         0.499779999
     0.670319974         0.000000000         0.499890000
     0.670300007         0.333330005         0.499900013
     0.670319974         0.666670024         0.499900013
     0.744369984         0.166800007         0.499900013
     0.744369984         0.499870002         0.500010014
     0.744369984         0.833329976         0.499949992
     0.818840027         0.000340000         0.499460012
     0.819000006         0.333319992         0.499989986
     0.818849981         0.666299999         0.500509977
     0.895110011         0.168390006         0.497240007
     0.895110011         0.498239994         0.502770007
     0.894550025         0.833320022         0.500010014
     0.407040000         0.166669995         0.549210012
     0.407040000         0.500010014         0.549210012
     0.407040000         0.833339989         0.549210012
     0.404280007         0.166649997         0.453150004
     0.404289991         0.500010014         0.453150004
     0.404280007         0.833369970         0.453150004
     0.418729991         0.000000000         0.352019995
     0.418720007         0.333330005         0.352030009
     0.418709993         0.666689992         0.352030009
     0.418550014         0.000010000         0.649190009
     0.418550014         0.333330005         0.649179995
     0.418550014         0.666689992         0.649179995
     0.475369990         0.000010000         0.554719985
     0.475369990         0.333339989         0.554719985
     0.475369990         0.666679978         0.554719985
     0.475400001         0.000000000         0.444530010
     0.475400001         0.333339989         0.444530010
     0.475400001         0.666679978         0.444530010
     0.495150000         0.166679993         0.346859992
     0.495150000         0.500020027         0.346859992
     0.495160013         0.833329976         0.346859992
     0.494940013         0.166659996         0.652509987
     0.494940013         0.500010014         0.652509987
     0.494940013         0.833350003         0.652509987
     0.547779977         0.166659996         0.554359972
     0.547779977         0.500010014         0.554359972
     0.547789991         0.833350003         0.554359972
     0.547789991         0.166659996         0.445149988
     0.547789991         0.500020027         0.445160002
     0.547789991         0.833339989         0.445160002
     0.569959998         0.999989986         0.347310007
     0.569959998         0.333370000         0.347319990
     0.569980025         0.666660011         0.347319990
     0.569760025         0.000010000         0.652199984
     0.569739997         0.333319992         0.652220011
     0.569739997         0.666679978         0.652209997
     0.620999992         0.000000000         0.554099977
     0.620980024         0.333319992         0.554109991
     0.620989978         0.666679978         0.554109991
     0.621060014         0.000000000         0.445549995
     0.621050000         0.333350003         0.445549995
     0.621070027         0.666670024         0.445560008
     0.644289970         0.166710004         0.347620010
     0.644360006         0.499980003         0.347660005
     0.644349992         0.833360016         0.347640008
     0.644190013         0.166690007         0.652050018
     0.644119978         0.499960005         0.652079999
     0.644180000         0.833320022         0.652069986
     0.694809973         0.166700006         0.554019988
     0.694760025         0.499949992         0.554059982
     0.694809973         0.833339989         0.554050028
     0.694809973         0.166720003         0.445780009
     0.694850028         0.499960005         0.445829988
     0.694859982         0.833339989         0.445789993
     0.718400002         0.000290000         0.347779989
     0.718469977         0.333169997         0.347909987
     0.718469977         0.666649997         0.347979993
     0.718330026         0.000020000         0.651899993
     0.718339980         0.333510011         0.651960015
     0.718270004         0.666379988         0.652079999
     0.769070029         0.000180000         0.553730011
     0.769050002         0.333330005         0.553929985
     0.768899977         0.666429996         0.554139972
     0.768930018         0.000220000         0.445789993
     0.769079983         0.333359987         0.446009994
     0.769110024         0.666469991         0.446209997
     0.792580009         0.166840002         0.347829998
     0.792190015         0.499749988         0.348659992
     0.792010009         0.833720028         0.348199993
     0.792079985         0.166920006         0.651279986
     0.792490005         0.499839991         0.652119994
     0.791909993         0.832939982         0.651759982
     0.843909979         0.166209996         0.552540004
     0.843620002         0.499269992         0.554709971
     0.843370020         0.834219992         0.553470016
     0.843640029         0.167349994         0.445279986
     0.843940020         0.500419974         0.447450012
     0.843400002         0.832430005         0.446520001
     0.866169989         0.997680008         0.346460015
     0.866259992         0.336430013         0.347070009
     0.864400029         0.666679978         0.348360002
     0.864310026         0.999939978         0.651650012
     0.866180003         0.330170006         0.652920008
     0.866079986         0.668959975         0.653540015
     0.918470025         0.002150000         0.550629973
     0.916769981         0.325060010         0.555320024
     0.917169988         0.675610006         0.556500018
     0.917200029         0.991050005         0.443520010
     0.916800022         0.341589987         0.444689989
     0.918510020         0.664479971         0.449409992
     0.938920021         0.167649999         0.340829998
     0.938499987         0.516070008         0.341010004
     0.938399971         0.817690015         0.340480000
     0.938419998         0.150570005         0.658980012
     0.938839972         0.498989999         0.659189999
     0.938340008         0.848969996         0.659529984
     0.348839998         0.502759993         0.548749983
     0.352750003         0.832790017         0.549470007
     0.351720005         0.166520000         0.451719999
     0.348199993         0.501129985         0.452360004
     0.964999974         0.116779998         0.690989971
     0.964779973         0.883660018         0.691680014
     0.964820027         0.783039987         0.308259994
     0.965040028         0.549870014         0.308930010
     0.389999986         0.166630000         0.619790018
     0.390020013         0.500010014         0.619790018
     0.389999986         0.833389997         0.619790018
     0.389349997         0.166600004         0.380659997
     0.389349997         0.500010014         0.380679995
     0.389349997         0.833410025         0.380670011
     0.468609989         0.000010000         0.632350028
     0.468609989         0.333330005         0.632340014
     0.468609989         0.666679978         0.632350028
     0.468970001         0.000000000         0.367449999
     0.468959987         0.333339989         0.367449999
     0.468959987         0.666679978         0.367449999
     0.544409990         0.166659996         0.630720019
     0.544409990         0.500010014         0.630729973
     0.544409990         0.833350003         0.630720019
     0.544650018         0.166690007         0.368750006
     0.544650018         0.500020027         0.368770003
     0.544659972         0.833310008         0.368759990
     0.619199991         0.000010000         0.630289972
     0.619159997         0.333299994         0.630299985
     0.619170010         0.666679978         0.630299985
     0.619360030         0.999989986         0.369370013
     0.619360030         0.333370000         0.369390011
     0.619390011         0.666670024         0.369390011
     0.693570018         0.166759998         0.630100012
     0.693490028         0.499949992         0.630150020
     0.693560004         0.833220005         0.630140007
     0.693620026         0.166710004         0.369690001
     0.693710029         0.499900013         0.369749993
     0.693700016         0.833490014         0.369700015
     0.767589986         0.999939978         0.629679978
     0.767679989         0.334080011         0.629920006
     0.767620027         0.665740013         0.630150020
     0.767719984         0.000920000         0.369789988
     0.767780006         0.332670003         0.370020002
     0.767700016         0.666710019         0.370260000
     0.841050029         0.169670001         0.628650010
     0.842360020         0.499740005         0.631579995
     0.840950012         0.829819977         0.629509985
     0.842440009         0.166869998         0.368409991
     0.841139972         0.496930003         0.371340007
     0.841040015         0.836830020         0.370490015
     0.910149992         0.999469995         0.620890021
     0.916350007         0.351870000         0.629299998
     0.916400015         0.647379994         0.630050004
     0.916469991         0.019269999         0.369969994
     0.916419983         0.314749986         0.370709985
     0.910239995         0.667119980         0.379139990
