 CONTCAR1
1.0
       34.0000000000         0.0000000000         0.0000000000
        0.0000000000         8.7300004959         0.0000000000
        0.0000000000         0.0000000000        23.0000000000
   Mo    N   Si
   24  104   48
Direct
     0.377502799         0.000007492         0.503855348
     0.377512604         0.333342046         0.503841043
     0.377512515         0.666672766         0.503840208
     0.453069270         0.166670784         0.499258310
     0.453072637         0.500006855         0.499261469
     0.453069001         0.833342016         0.499259591
     0.524174452         0.000001272         0.499777257
     0.524175584         0.333335072         0.499779791
     0.524175525         0.666680276         0.499782145
     0.596784294         0.166661054         0.499778092
     0.596783996         0.500011504         0.499784768
     0.596790731         0.833340704         0.499781132
     0.670319319         0.000002458         0.499893934
     0.670298278         0.333333403         0.499898016
     0.670317888         0.666674078         0.499898225
     0.744365156         0.166802511         0.499902695
     0.744364738         0.499872476         0.500007808
     0.744370937         0.833329380         0.499953449
     0.818842351         0.000342791         0.499464393
     0.819002032         0.333323330         0.499987572
     0.818845928         0.666295946         0.500512421
     0.895112157         0.168387577         0.497238785
     0.895111918         0.498242795         0.502766311
     0.894553006         0.833317816         0.500007927
     0.407036215         0.166670084         0.549209177
     0.407037139         0.500008047         0.549207211
     0.407035559         0.833343804         0.549209535
     0.404278010         0.166645303         0.453145742
     0.404289901         0.500006616         0.453146189
     0.404278696         0.833370626         0.453146249
     0.418731779         0.000003586         0.352023035
     0.418715775         0.333327651         0.352029294
     0.418713599         0.666688621         0.352030039
     0.418552279         0.000007119         0.649186969
     0.418553710         0.333324820         0.649183035
     0.418554604         0.666689873         0.649183393
     0.475368470         0.000006177         0.554723382
     0.475371838         0.333335996         0.554722726
     0.475371718         0.666677415         0.554723680
     0.475400239         0.000003851         0.444531292
     0.475398660         0.333337247         0.444530755
     0.475398064         0.666677356         0.444532305
     0.495153189         0.166675910         0.346859425
     0.495150596         0.500016510         0.346862257
     0.495157212         0.833325803         0.346861899
     0.494941443         0.166663423         0.652506590
     0.494939089         0.500006855         0.652505934
     0.494943619         0.833350062         0.652506530
     0.547781706         0.166658655         0.554355562
     0.547780752         0.500008523         0.554361224
     0.547784507         0.833348095         0.554357350
     0.547788858         0.166663930         0.445151448
     0.547787488         0.500015855         0.445160717
     0.547791481         0.833336413         0.445155680
     0.569961071         0.999993265         0.347310394
     0.569959462         0.333370060         0.347314507
     0.569982469         0.666659117         0.347323805
     0.569762111         0.000010102         0.652204454
     0.569736898         0.333317459         0.652215183
     0.569741786         0.666683018         0.652214229
     0.620997190         0.000003283         0.554101169
     0.620975792         0.333321393         0.554107487
     0.620990217         0.666682541         0.554109991
     0.621063173         0.999995112         0.445548415
     0.621048212         0.333351284         0.445555359
     0.621067941         0.666671097         0.445560575
     0.644292533         0.166706994         0.347623646
     0.644361675         0.499981552         0.347663611
     0.644349039         0.833359480         0.347640902
     0.644187331         0.166693315         0.652053177
     0.644119799         0.499965370         0.652083039
     0.644177258         0.833320320         0.652066708
     0.694808543         0.166703582         0.554016709
     0.694763958         0.499948561         0.554059148
     0.694810092         0.833340108         0.554048300
     0.694812596         0.166722804         0.445776850
     0.694853485         0.499960810         0.445826560
     0.694856226         0.833342493         0.445786774
     0.718397975         0.000294142         0.347779900
     0.718469322         0.333169788         0.347907752
     0.718466043         0.666654408         0.347980648
     0.718331993         0.000014505         0.651896000
     0.718341470         0.333508283         0.651955962
     0.718269587         0.666380286         0.652077615
     0.769067466         0.000181491         0.553725779
     0.769045293         0.333329082         0.553929329
     0.768898249         0.666434467         0.554144263
     0.768927634         0.000221717         0.445792288
     0.769076347         0.333362818         0.446006417
     0.769104779         0.666472435         0.446209699
     0.792581856         0.166843653         0.347835243
     0.792187095         0.499755204         0.348656237
     0.792010427         0.833723962         0.348201454
     0.792080343         0.166917950         0.651281118
     0.792492270         0.499841750         0.652123034
     0.791906834         0.832939386         0.651754677
     0.843913436         0.166211039         0.552538276
     0.843614876         0.499273688         0.554712355
     0.843373716         0.834220946         0.553472400
     0.843635857         0.167352855         0.445276439
     0.843940258         0.500419796         0.447448939
     0.843400598         0.832424581         0.446521312
     0.866165519         0.997684240         0.346455693
     0.866263270         0.336426318         0.347072601
     0.864399672         0.666681409         0.348360091
     0.864306211         0.999942183         0.651648700
     0.866183281         0.330172479         0.652915597
     0.866082549         0.668957114         0.653536499
     0.918467224         0.002152869         0.550631046
     0.916772127         0.325057745         0.555316389
     0.917166293         0.675606906         0.556501210
     0.917198837         0.991051793         0.443523914
     0.916799426         0.341585934         0.444693118
     0.918507278         0.664482892         0.449408233
     0.938922882         0.167647690         0.340827316
     0.938497603         0.516066372         0.341005683
     0.938404024         0.817686677         0.340478629
     0.938420713         0.150569752         0.658978343
     0.938842654         0.498986512         0.659187436
     0.938334823         0.848965466         0.659532189
     0.358248889         0.333335578         0.589284718
     0.358248800         0.666678905         0.589288116
     0.357602417         0.000007584         0.405768752
     0.357611597         0.333326250         0.405821294
     0.964998245         0.116774634         0.690987527
     0.964781165         0.883660972         0.691682816
     0.964818478         0.783041120         0.308259487
     0.965036869         0.549870193         0.308933854
     0.390003502         0.166626781         0.619786739
     0.390015006         0.500007927         0.619788527
     0.390003651         0.833387733         0.619787395
     0.389353216         0.166604266         0.380664170
     0.389347970         0.500004530         0.380681634
     0.389352262         0.833410382         0.380665988
     0.468613803         0.000005513         0.632348061
     0.468613535         0.333334476         0.632344246
     0.468614221         0.666680396         0.632344902
     0.468969882         0.000000271         0.367450804
     0.468956530         0.333337724         0.367447078
     0.468954623         0.666680992         0.367448270
     0.544409931         0.166656852         0.630720854
     0.544408202         0.500005782         0.630726039
     0.544413328         0.833350301         0.630722642
     0.544654429         0.166686609         0.368752778
     0.544653833         0.500021994         0.368767053
     0.544659853         0.833310902         0.368757516
     0.619197488         0.000006000         0.630294383
     0.619159162         0.333299518         0.630299211
     0.619166791         0.666682720         0.630304277
     0.619360626         0.999993503         0.369373262
     0.619355798         0.333373100         0.369385868
     0.619389117         0.666672587         0.369389772
     0.693572164         0.166756004         0.630098701
     0.693485498         0.499950618         0.630149364
     0.693563581         0.833218694         0.630141020
     0.693624079         0.166705236         0.369690388
     0.693713784         0.499899477         0.369750053
     0.693702281         0.833488166         0.369696558
     0.767586768         0.999934554         0.629674733
     0.767682433         0.334078550         0.629918873
     0.767619967         0.665739059         0.630149603
     0.767720342         0.000915935         0.369792253
     0.767783523         0.332673669         0.370019346
     0.767702818         0.666706383         0.370261818
     0.841053486         0.169666678         0.628645957
     0.842363954         0.499738008         0.631581008
     0.840945959         0.829815626         0.629507065
     0.842438638         0.166867599         0.368409604
     0.841143966         0.496931911         0.371338844
     0.841035604         0.836828232         0.370487213
     0.910153449         0.999470174         0.620891094
     0.916351199         0.351871580         0.629301012
     0.916395783         0.647381723         0.630054176
     0.916469157         0.019269934         0.369966924
     0.916421711         0.314750403         0.370708436
     0.910242379         0.667120874         0.379141629
