 CONTCAR1                               
   1.00000000000000     
    34.0000000000000000    0.0000000000000000    0.0000000000000000
     0.0000000000000000    5.8200001717000003    0.0000000000000000
     0.0000000000000000    0.0000000000000000   23.0000000000000000
   Mo   N    Si
    16    71    32
Selective dynamics
Direct
  0.3745517939448307 -0.0000000000000000  0.4845685221948057   T   T   T
  0.3732300022534947  0.5000000000000000  0.4874303864038720   T   T   T
  0.4481571414017385  0.2499940770785238  0.5020773644716197   T   T   T
  0.4481571414017385  0.7500059429214778  0.5020773644716197   T   T   T
  0.5206108998750384 -0.0000000000000000  0.5013148769317538   T   T   T
  0.5210921441494953  0.5000000000000000  0.5006737535921733   T   T   T
  0.5942163510009326  0.2496851256505027  0.5006318530569382   T   T   T
  0.5942163510009326  0.7503148943494989  0.5006318530569382   T   T   T
  0.6680445502774586 -0.0000000000000000  0.5001568090472592   T   T   T
  0.6679940139954288  0.5000000000000000  0.5002000363552900   T   T   T
  0.7421763902148095  0.2496275178945929  0.4999447848512969   T   T   T
  0.7421763902148095  0.7503725021054087  0.4999447848512969   T   T   T
  0.8167721706727065  0.0000000000000000  0.4998411204578588   F   F   F
  0.8167594751133009  0.5000000000000000  0.4998413962674633   F   F   F
  0.8934314613702909  0.2427708801257182  0.5000133813190502   F   F   F
  0.8934314613702909  0.7572291398742834  0.5000133813190502   F   F   F
  0.3935822679643221  0.2419467578494321  0.5452713300020358   T   T   T
  0.3935822679643221  0.7580532621505695  0.5452713300020358   T   T   T
  0.4051017767116332  0.2524451729134523  0.4462521449619145   T   T   T
  0.4051017767116332  0.7475548470865493  0.4462521449619145   T   T   T
  0.4186496430571445 -0.0000000000000000  0.3469347696097208   T   T   T
  0.4183707075540876  0.5000000000000000  0.3464920567602398   T   T   T
  0.4126168072095119 -0.0000000000000000  0.6450129703686743   T   T   T
  0.4240494754926774  0.5000000000000000  0.6491109957004932   T   T   T
  0.4706228727309604 -0.0000000000000000  0.5561337701623408   T   T   T
  0.4724086343780867  0.5000000000000000  0.5550491807999133   T   T   T
  0.4717588606489973 -0.0000000000000000  0.4468590216476451   T   T   T
  0.4718930428590228  0.5000000000000000  0.4466661650533057   T   T   T
  0.4936846436973044  0.2500396680613116  0.3489626416639674   T   T   T
  0.4936846436973044  0.7499603519386900  0.3489626416639674   T   T   T
  0.4943460145816914  0.2438404027488969  0.6534402884353955   T   T   T
  0.4943460145816914  0.7561596172511049  0.6534402884353955   T   T   T
  0.5450826587177841  0.2495309282760632  0.5553329773297900   T   T   T
  0.5450826587177841  0.7504690917239383  0.5553329773297900   T   T   T
  0.5448672715540367  0.2491928154891655  0.4465762404772545   T   T   T
  0.5448672715540367  0.7508072045108359  0.4465762404772545   T   T   T
  0.5681412728918425 -0.0000000000000000  0.3484968093516605   T   T   T
  0.5680875346731866  0.5000000000000000  0.3486762192357505   T   T   T
  0.5692715220202860 -0.0000000000000000  0.6533338594609173   T   T   T
  0.5683362820207052  0.5000000000000000  0.6529854749602610   T   T   T
  0.6188419533492269 -0.0000000000000000  0.5547355762951696   T   T   T
  0.6186730380168354  0.5000000000000000  0.5547279489705129   T   T   T
  0.6185587177258485 -0.0000000000000000  0.4461504517029941   T   T   T
  0.6185035518253994  0.5000000000000000  0.4462128756399535   T   T   T
  0.6424729905120693  0.2502726491366760  0.3481270459691666   T   T   T
  0.6424729905120693  0.7497273708633259  0.3481270459691666   T   T   T
  0.6429583892696650  0.2507218101014090  0.6525663246413422   T   T   T
  0.6429583892696650  0.7492782098985928  0.6525663246413422   T   T   T
  0.6926674538867235  0.2501571153096146  0.5541803387641496   T   T   T
  0.6926674538867235  0.7498429046903873  0.5541803387641496   T   T   T
  0.6925273654156782  0.2501763543745439  0.4459614141608435   T   T   T
  0.6925273654156782  0.7498236656254581  0.4459614141608435   T   T   T
  0.7164848146572455 -0.0000000000000000  0.3479916804585820   T   T   T
  0.7169685503578148  0.5000000000000000  0.3482752651446477   T   T   T
  0.7166470132267806 -0.0000000000000000  0.6520702619838730   T   T   T
  0.7172135245014427  0.5000000000000000  0.6517853770587604   T   T   T
  0.7666994388118269 -0.0000000000000000  0.5537848835099576   T   T   T
  0.7671482442196820  0.5000000000000000  0.5535705287579564   T   T   T
  0.7666422800430074 -0.0000000000000000  0.4460361311970324   T   T   T
  0.7670855218323579  0.5000000000000000  0.4462503572608059   T   T   T
  0.7907072365763180  0.2477534214873426  0.3485769013981720   T   T   T
  0.7907072365763180  0.7522465985126592  0.3485769013981720   T   T   T
  0.7906265919076306  0.2477075589313773  0.6512917466218333   T   T   T
  0.7906265919076305  0.7522924610686245  0.6512917466218333   T   T   T
  0.8415043701306999  0.2477961258229939  0.5530421270754928   F   F   F
  0.8415043701306999  0.7522038941770077  0.5530421270754928   F   F   F
  0.8415957008443087  0.2477933512756110  0.4467369027533223   F   F   F
  0.8415957008443087  0.7522066687243907  0.4467369027533223   F   F   F
  0.8664050582798950  0.0000000000000000  0.3474599018262339   F   F   F
  0.8618514723370865  0.5000000000000000  0.3483490121999111   F   F   F
  0.8661783244795487  0.0000000000000000  0.6523998843520857   F   F   F
  0.8615908270934440  0.5000000000000000  0.6515378651603569   F   F   F
  0.9153581026750146  0.0000000000000000  0.5568329444550528   F   F   F
  0.9130066063374329  0.5000000000000000  0.5517051678956690   F   F   F
  0.9154532314809529  0.0000000000000000  0.4432606598311395   F   F   F
  0.9131039920032435  0.5000000000000000  0.4484611526592204   F   F   F
  0.9361788580895478  0.2759360752148083  0.3440914321113553   F   F   F
  0.9361788580895478  0.7240639447851933  0.3440914321113553   F   F   F
  0.9359493731408577  0.2759260202899725  0.6561218321338345   F   F   F
  0.9359493731408577  0.7240739997100292  0.6561218321338345   F   F   F
  0.3543085354371143  0.5000000000000000  0.6176022868800773   T   T   T
  0.3573262817180885 -0.0000000000000000  0.4005836036121595   T   T   T
  0.3571933377163786  0.5000000000000000  0.4036575539147760   T   T   T
  0.9680852010709629  0.3910315222631766  0.6852303711477674   F   F   F
  0.9680852010709629  0.6089684377368201  0.6852303711477674   F   F   F
  0.9681462917935164  0.3910336399508196  0.3146223728790432   F   F   F
  0.9681462917935164  0.6089663200491771  0.3146223728790432   F   F   F
  0.3921301318751680  0.2856066015576857  0.6213771069046522   T   T   T
  0.3921301318751680  0.7143934184423156  0.6213771069046522   T   T   T
  0.3899253558855376  0.2507607505417558  0.3740899622633483   T   T   T
  0.3899253558855376  0.7492392694582533  0.3740899622633483   T   T   T
  0.4659911832770588 -0.0000000000000000  0.6324346204547004   T   T   T
  0.4720947150003575  0.5000000000000000  0.6319124216515267   T   T   T
  0.4677118731073936 -0.0000000000000000  0.3684906760520217   T   T   T
  0.4675445694923820  0.5000000000000000  0.3682861258646125   T   T   T
  0.5439519960613659  0.2468179471415965  0.6315342526300910   T   T   T
  0.5439519960613659  0.7531820728584052  0.6315342526300910   T   T   T
  0.5431300050592678  0.2498611383616977  0.3702883238972435   T   T   T
  0.5431300050592678  0.7501388816383042  0.3702883238972435   T   T   T
  0.6185527558454529 -0.0000000000000000  0.6307930991623653   T   T   T
  0.6180105093230469  0.5000000000000000  0.6308172144858449   T   T   T
  0.6177386493416791 -0.0000000000000000  0.3699991335330944   T   T   T
  0.6176760408789198  0.5000000000000000  0.3700718411780263   T   T   T
  0.6923766580317993  0.2505769147594048  0.6302313089760090   T   T   T
  0.6923766580317993  0.7494231052405973  0.6302313089760090   T   T   T
  0.6920651504807177  0.2503283562193991  0.3698544062447225   T   T   T
  0.6920651504807177  0.7496716637806032  0.3698544062447225   T   T   T
  0.7659788915937620 -0.0000000000000000  0.6297995018544932   T   T   T
  0.7667875035294887  0.5000000000000000  0.6298765058300732   T   T   T
  0.7659444106214346 -0.0000000000000000  0.3700095040715849   T   T   T
  0.7667045840049358  0.5000000000000000  0.3699159209933356   T   T   T
  0.8403013937974251  0.2448968383858841  0.6299632367380568   F   F   F
  0.8403013937974251  0.7551031816141176  0.6299632367380568   F   F   F
  0.8405094326459732  0.2449307792832727  0.3698025848623416   F   F   F
  0.8405094326459732  0.7550692407167290  0.3698025848623416   F   F   F
  0.9189457861391617  0.0000000000000000  0.6327920904827806   F   F   F
  0.9096694625698234  0.5000000000000000  0.6248886119015538   F   F   F
  0.9191234515035163  0.0000000000000000  0.3673047708709731   F   F   F
  0.9098674911821121  0.5000000000000000  0.3752694759116437   F   F   F
 
  0.00000000E+00  0.00000000E+00  0.00000000E+00
  0.00000000E+00  0.00000000E+00  0.00000000E+00
  0.00000000E+00  0.00000000E+00  0.00000000E+00
  0.00000000E+00  0.00000000E+00  0.00000000E+00
  0.00000000E+00  0.00000000E+00  0.00000000E+00
  0.00000000E+00  0.00000000E+00  0.00000000E+00
  0.00000000E+00  0.00000000E+00  0.00000000E+00
  0.00000000E+00  0.00000000E+00  0.00000000E+00
  0.00000000E+00  0.00000000E+00  0.00000000E+00
  0.00000000E+00  0.00000000E+00  0.00000000E+00
  0.00000000E+00  0.00000000E+00  0.00000000E+00
  0.00000000E+00  0.00000000E+00  0.00000000E+00
  0.00000000E+00  0.00000000E+00  0.00000000E+00
  0.00000000E+00  0.00000000E+00  0.00000000E+00
  0.00000000E+00  0.00000000E+00  0.00000000E+00
  0.00000000E+00  0.00000000E+00  0.00000000E+00
  0.00000000E+00  0.00000000E+00  0.00000000E+00
  0.00000000E+00  0.00000000E+00  0.00000000E+00
  0.00000000E+00  0.00000000E+00  0.00000000E+00
  0.00000000E+00  0.00000000E+00  0.00000000E+00
  0.00000000E+00  0.00000000E+00  0.00000000E+00
  0.00000000E+00  0.00000000E+00  0.00000000E+00
  0.00000000E+00  0.00000000E+00  0.00000000E+00
  0.00000000E+00  0.00000000E+00  0.00000000E+00
  0.00000000E+00  0.00000000E+00  0.00000000E+00
  0.00000000E+00  0.00000000E+00  0.00000000E+00
  0.00000000E+00  0.00000000E+00  0.00000000E+00
  0.00000000E+00  0.00000000E+00  0.00000000E+00
  0.00000000E+00  0.00000000E+00  0.00000000E+00
  0.00000000E+00  0.00000000E+00  0.00000000E+00
  0.00000000E+00  0.00000000E+00  0.00000000E+00
  0.00000000E+00  0.00000000E+00  0.00000000E+00
  0.00000000E+00  0.00000000E+00  0.00000000E+00
  0.00000000E+00  0.00000000E+00  0.00000000E+00
  0.00000000E+00  0.00000000E+00  0.00000000E+00
  0.00000000E+00  0.00000000E+00  0.00000000E+00
  0.00000000E+00  0.00000000E+00  0.00000000E+00
  0.00000000E+00  0.00000000E+00  0.00000000E+00
  0.00000000E+00  0.00000000E+00  0.00000000E+00
  0.00000000E+00  0.00000000E+00  0.00000000E+00
  0.00000000E+00  0.00000000E+00  0.00000000E+00
  0.00000000E+00  0.00000000E+00  0.00000000E+00
  0.00000000E+00  0.00000000E+00  0.00000000E+00
  0.00000000E+00  0.00000000E+00  0.00000000E+00
  0.00000000E+00  0.00000000E+00  0.00000000E+00
  0.00000000E+00  0.00000000E+00  0.00000000E+00
  0.00000000E+00  0.00000000E+00  0.00000000E+00
  0.00000000E+00  0.00000000E+00  0.00000000E+00
  0.00000000E+00  0.00000000E+00  0.00000000E+00
  0.00000000E+00  0.00000000E+00  0.00000000E+00
  0.00000000E+00  0.00000000E+00  0.00000000E+00
  0.00000000E+00  0.00000000E+00  0.00000000E+00
  0.00000000E+00  0.00000000E+00  0.00000000E+00
  0.00000000E+00  0.00000000E+00  0.00000000E+00
  0.00000000E+00  0.00000000E+00  0.00000000E+00
  0.00000000E+00  0.00000000E+00  0.00000000E+00
  0.00000000E+00  0.00000000E+00  0.00000000E+00
  0.00000000E+00  0.00000000E+00  0.00000000E+00
  0.00000000E+00  0.00000000E+00  0.00000000E+00
  0.00000000E+00  0.00000000E+00  0.00000000E+00
  0.00000000E+00  0.00000000E+00  0.00000000E+00
  0.00000000E+00  0.00000000E+00  0.00000000E+00
  0.00000000E+00  0.00000000E+00  0.00000000E+00
  0.00000000E+00  0.00000000E+00  0.00000000E+00
  0.00000000E+00  0.00000000E+00  0.00000000E+00
  0.00000000E+00  0.00000000E+00  0.00000000E+00
  0.00000000E+00  0.00000000E+00  0.00000000E+00
  0.00000000E+00  0.00000000E+00  0.00000000E+00
  0.00000000E+00  0.00000000E+00  0.00000000E+00
  0.00000000E+00  0.00000000E+00  0.00000000E+00
  0.00000000E+00  0.00000000E+00  0.00000000E+00
  0.00000000E+00  0.00000000E+00  0.00000000E+00
  0.00000000E+00  0.00000000E+00  0.00000000E+00
  0.00000000E+00  0.00000000E+00  0.00000000E+00
  0.00000000E+00  0.00000000E+00  0.00000000E+00
  0.00000000E+00  0.00000000E+00  0.00000000E+00
  0.00000000E+00  0.00000000E+00  0.00000000E+00
  0.00000000E+00  0.00000000E+00  0.00000000E+00
  0.00000000E+00  0.00000000E+00  0.00000000E+00
  0.00000000E+00  0.00000000E+00  0.00000000E+00
  0.00000000E+00  0.00000000E+00  0.00000000E+00
  0.00000000E+00  0.00000000E+00  0.00000000E+00
  0.00000000E+00  0.00000000E+00  0.00000000E+00
  0.00000000E+00  0.00000000E+00  0.00000000E+00
  0.00000000E+00  0.00000000E+00  0.00000000E+00
  0.00000000E+00  0.00000000E+00  0.00000000E+00
  0.00000000E+00  0.00000000E+00  0.00000000E+00
  0.00000000E+00  0.00000000E+00  0.00000000E+00
  0.00000000E+00  0.00000000E+00  0.00000000E+00
  0.00000000E+00  0.00000000E+00  0.00000000E+00
  0.00000000E+00  0.00000000E+00  0.00000000E+00
  0.00000000E+00  0.00000000E+00  0.00000000E+00
  0.00000000E+00  0.00000000E+00  0.00000000E+00
  0.00000000E+00  0.00000000E+00  0.00000000E+00
  0.00000000E+00  0.00000000E+00  0.00000000E+00
  0.00000000E+00  0.00000000E+00  0.00000000E+00
  0.00000000E+00  0.00000000E+00  0.00000000E+00
  0.00000000E+00  0.00000000E+00  0.00000000E+00
  0.00000000E+00  0.00000000E+00  0.00000000E+00
  0.00000000E+00  0.00000000E+00  0.00000000E+00
  0.00000000E+00  0.00000000E+00  0.00000000E+00
  0.00000000E+00  0.00000000E+00  0.00000000E+00
  0.00000000E+00  0.00000000E+00  0.00000000E+00
  0.00000000E+00  0.00000000E+00  0.00000000E+00
  0.00000000E+00  0.00000000E+00  0.00000000E+00
  0.00000000E+00  0.00000000E+00  0.00000000E+00
  0.00000000E+00  0.00000000E+00  0.00000000E+00
  0.00000000E+00  0.00000000E+00  0.00000000E+00
  0.00000000E+00  0.00000000E+00  0.00000000E+00
  0.00000000E+00  0.00000000E+00  0.00000000E+00
  0.00000000E+00  0.00000000E+00  0.00000000E+00
  0.00000000E+00  0.00000000E+00  0.00000000E+00
  0.00000000E+00  0.00000000E+00  0.00000000E+00
  0.00000000E+00  0.00000000E+00  0.00000000E+00
  0.00000000E+00  0.00000000E+00  0.00000000E+00
  0.00000000E+00  0.00000000E+00  0.00000000E+00
  0.00000000E+00  0.00000000E+00  0.00000000E+00
  0.00000000E+00  0.00000000E+00  0.00000000E+00
  0.00000000E+00  0.00000000E+00  0.00000000E+00
