POSCAR
1.0
       65.0000000000         0.0000000000         0.0000000000
        0.0000000000         2.9100000858         0.0000000000
        0.0000000000         0.0000000000        23.0000000000
   Mo    N   Si
   13   52   26
Direct
     0.306250006         0.500000000         0.499909997
     0.344999999         0.000000000         0.499909997
     0.383740008         0.500000000         0.499920011
     0.422490001         0.000000000         0.499920011
     0.461250007         0.500000000         0.499940008
     0.500010014         0.000000000         0.499949992
     0.538779974         0.500000000         0.499960005
     0.577539980         0.000000000         0.499949992
     0.616299987         0.500000000         0.499929994
     0.655080020         0.000000000         0.499960005
     0.693910003         0.500000000         0.500000000
     0.732800007         0.000000000         0.500029981
     0.772729993         0.500000000         0.500029981
     0.319150001         0.000000000         0.554159999
     0.319150001         0.000000000         0.445670009
     0.332080007         0.500000000         0.347629994
     0.332080007         0.500000000         0.652190030
     0.357899994         0.500000000         0.554159999
     0.357899994         0.500000000         0.445670009
     0.370829999         0.000000000         0.347640008
     0.370829999         0.000000000         0.652190030
     0.396640003         0.000000000         0.554149985
     0.396640003         0.000000000         0.445679992
     0.409579992         0.500000000         0.347669989
     0.409579992         0.500000000         0.652180016
     0.435389996         0.500000000         0.554159999
     0.435400009         0.500000000         0.445690006
     0.448339999         0.000000000         0.347680002
     0.448339999         0.000000000         0.652180016
     0.474159986         0.000000000         0.554170012
     0.474159986         0.000000000         0.445719987
     0.487109989         0.500000000         0.347710013
     0.487100005         0.500000000         0.652190030
     0.512920022         0.500000000         0.554180026
     0.512920022         0.500000000         0.445730001
     0.525879979         0.000000000         0.347719997
     0.525879979         0.000000000         0.652199984
     0.551680028         0.000000000         0.554189980
     0.551680028         0.000000000         0.445730001
     0.564649999         0.500000000         0.347719997
     0.564649999         0.500000000         0.652190030
     0.590449989         0.500000000         0.554159999
     0.590449989         0.500000000         0.445730001
     0.603439987         0.000000000         0.347739995
     0.603420019         0.000000000         0.652140021
     0.629209995         0.000000000         0.554109991
     0.629220009         0.000000000         0.445769995
     0.642220020         0.500000000         0.347849995
     0.642199993         0.500000000         0.652050018
     0.667980015         0.500000000         0.554030001
     0.667990029         0.500000000         0.445919991
     0.680989981         0.000000000         0.348159999
     0.680960000         0.000000000         0.651809990
     0.706830025         0.000000000         0.553749979
     0.706849992         0.000000000         0.446280003
     0.719699979         0.500000000         0.348910004
     0.719659984         0.500000000         0.651130021
     0.745769978         0.500000000         0.553200006
     0.745779991         0.500000000         0.446880013
     0.758130014         0.000000000         0.348360002
     0.758090019         0.000000000         0.651730001
     0.783039987         0.000000000         0.554570019
     0.783050001         0.000000000         0.445520014
     0.796199977         0.500000000         0.347589999
     0.796150029         0.500000000         0.652520001
     0.319209993         0.000000000         0.630140007
     0.319209993         0.000000000         0.369679987
     0.357959986         0.500000000         0.630140007
     0.357959986         0.500000000         0.369690001
     0.396710008         0.000000000         0.630140007
     0.396710008         0.000000000         0.369709998
     0.435460001         0.500000000         0.630140007
     0.435460001         0.500000000         0.369709998
     0.474220008         0.000000000         0.630159974
     0.474229991         0.000000000         0.369729996
     0.512989998         0.500000000         0.630169988
     0.512989998         0.500000000         0.369740009
     0.551760018         0.000000000         0.630180001
     0.551769972         0.000000000         0.369740009
     0.590529978         0.500000000         0.630159974
     0.590550005         0.500000000         0.369729996
     0.629320025         0.000000000         0.630140007
     0.629339993         0.000000000         0.369729996
     0.668120027         0.500000000         0.630129993
     0.668139994         0.500000000         0.369809985
     0.706950009         0.000000000         0.630079985
     0.706979990         0.000000000         0.369949996
     0.745930016         0.500000000         0.630530000
     0.745959997         0.500000000         0.369549990
     0.785099983         0.000000000         0.631560028
     0.785139978         0.000000000         0.368530005
