CONTCAR1                                
   1.00000000000000     
     5.0399999619000004    0.0000000000000000    0.0000000000000000
     0.0000000000000000   39.0000000000000000    0.0000000000000000
     0.0000000000000000    0.0000000000000000   23.0000000000000000
   N    Si   Mo
    68    34    17
Direct
  0.1952546631506202  0.3326585187799754  0.5582271556861782
  0.1952382052641056  0.3326605271642361  0.4416583960942362
  0.1581180339672492  0.4094708994187791  0.5532650182676873
  0.1581196787010941  0.4094703642187097  0.4466245150410586
  0.3267454368669667  0.3737662953144119  0.3466513892253885
  0.3267566390401183  0.3737685220352981  0.6532330501005326
  0.6640141424091355  0.3721327136234633  0.5545244153680235
  0.6640065240595046  0.3721328541753874  0.4453656584528313
  0.1560232315235411  0.4849913531865022  0.5547228090657795
  0.1560158675655151  0.4849922773039006  0.4451683632070605
  0.3252399308495079  0.4479652716852730  0.3478373548860915
  0.3252586206486083  0.4479656218224719  0.6520558446132172
  0.6593234657841193  0.4476331809585500  0.5544533392223543
  0.6593187245724031  0.4476341319347719  0.4454422170234867
  0.1558232923399031  0.5596680156672552  0.5548624867620915
  0.1558177842750214  0.5596677532955172  0.4450347578327950
  0.3250023243537559  0.5224242797541387  0.3469539886326907
  0.3250389960182611  0.5224226187123862  0.6529375986684075
  0.6558103304872033  0.5223024069039156  0.5547040061272954
  0.6558003830391381  0.5223022367353982  0.4451908120189445
  0.1554003233253905  0.6342284033345722  0.5548238570771467
  0.1553957718532699  0.6342285822870682  0.4450736253267725
  0.3250781639937095  0.5969667248886126  0.3468231314576117
  0.3251222804860864  0.5969644125880793  0.6530764305247132
  0.6553886213594090  0.5969353367867077  0.5548629085340505
  0.6553883442475098  0.5969359933970637  0.4450366525778380
  0.1557976767084284  0.7087907751301877  0.5548528864259554
  0.1557854212938358  0.7087914372056170  0.4450339392917312
  0.3250480776179656  0.6714974383524428  0.3468244869977132
  0.3250845913441670  0.6714955966178210  0.6530678638032527
  0.6553714407419796  0.6715242601376988  0.5548588993522087
  0.6553631979549143  0.6715243050412049  0.4450357055645729
  0.1559889500621248  0.7834710950392959  0.5547195753729551
  0.1559793766157556  0.7834726788150007  0.4451714371508652
  0.3249278223321003  0.7460410476471744  0.3469588260222700
  0.3249526662733402  0.7460363240591521  0.6529267628232590
  0.6557741836705924  0.7461586324786923  0.5546963733824640
  0.6557701463656603  0.7461596063999646  0.4451899548123269
  0.1580615524093860  0.8589925936435724  0.5532713361156499
  0.1580569721190532  0.8589934642318106  0.4466285838155821
  0.3251520521407602  0.8204999520574110  0.3478413943748070
  0.3251672116747084  0.8204955320357166  0.6520560893572669
  0.6592755407608560  0.8208303664448509  0.5544525346346588
  0.6592795152722764  0.8208314391890348  0.4454402145174037
  0.1951872754324330  0.9357985003058238  0.5582281118602521
  0.1951753739645465  0.9357987682714607  0.4416625303536543
  0.3266556023454609  0.8946945342902373  0.3466528298885352
  0.3266619169524497  0.8946921167109103  0.6532429521398044
  0.6639475203689736  0.8963272726082069  0.5545244777607389
  0.6639504687720665  0.8963272101530991  0.4453686317611318
  0.8207463370105244  0.3352900769969542  0.3443195268506551
  0.8207702545916881  0.3352927450956884  0.6555680102259360
  0.8242806151980345  0.4104301290701284  0.3482011749944685
  0.8243003497257831  0.4104314550105569  0.6516935551681040
  0.8247255925310401  0.4850685793254765  0.3471404280749066
  0.8247621180962971  0.4850692450269069  0.6527505802846115
  0.8249854386523890  0.5596529303414892  0.3469111067559978
  0.8250279638006459  0.5596508608995496  0.6529875742455475
  0.8251021595245034  0.6342327861417867  0.3468454482592627
  0.8251483332725845  0.6342301165200441  0.6530517546170378
  0.8249325860500444  0.7088125992479126  0.3469070694751775
  0.8249628411587816  0.7088106589919577  0.6529785730074886
  0.8246482072438150  0.7833969425347659  0.3471441545418466
  0.8246731087922271  0.7833930334096240  0.6527430056347916
  0.8242031902396355  0.8580311428949331  0.3481963877472872
  0.8242068130402112  0.8580267485374579  0.6516966658434348
  0.8206527909062870  0.9331672059827418  0.3443258760511150
  0.8206577931987975  0.9331628413516520  0.6555648565496216
  0.1164451888596044  0.3413977368787096  0.6279145595722961
  0.1164427897928767  0.3413905177815720  0.3719624629604179
  0.1551696167662064  0.4109109919742617  0.6303845292486852
  0.1551636137949368  0.4109087253770435  0.3695034929338858
  0.6588123858500131  0.3708034473904975  0.6328785234310226
  0.6588012862828700  0.3708008244351398  0.3670126555342413
  0.1561102558618041  0.4852134983801817  0.6308347853943443
  0.1560732350400024  0.4852142557636572  0.3690535716262210
  0.6575022113453827  0.4475034740520891  0.6307455049229754
  0.6574728063270745  0.4475030020111577  0.3691493071861901
  0.1565283439422151  0.5596974024883754  0.6309804184761793
  0.1564861559789556  0.5596985113661446  0.3689142188137920
  0.6565050707963614  0.5223388255364363  0.6308508680210566
  0.6564605186482247  0.5223391892985868  0.3690405381753700
  0.1565583229158257  0.6342274869304433  0.6309495316915035
  0.1565056245126972  0.6342313383055883  0.3689450612241230
  0.6565447988076203  0.5969445590087763  0.6309829004563094
  0.6565009005415617  0.5969476948014828  0.3689154457717436
  0.1564511245299102  0.7087605111188386  0.6309662996621552
  0.1564259839510388  0.7087643499153967  0.3689150357378657
  0.6565070353786591  0.6715139760985969  0.6309779028146838
  0.6564716911182097  0.6715179395290258  0.3689136567699501
  0.1560153961935531  0.7832464257014805  0.6308309628748955
  0.1559867513072714  0.7832519636842402  0.3690578586207137
  0.6564100605365637  0.7461226885104723  0.6308407622197043
  0.6563884799341618  0.7461261921816402  0.3690417502187968
  0.1550759284505966  0.8575517980549463  0.6303931892647756
  0.1550773877729419  0.8575543630170664  0.3695093105760844
  0.6573970976499105  0.8209565276661785  0.6307449556919460
  0.6573839290961623  0.8209618052090022  0.3691465307634424
  0.1163285806440633  0.9270625264361144  0.6279153174628008
  0.1163345367118397  0.9270686492431099  0.3719693556900173
  0.6587096784705507  0.8976504888993037  0.6328762761646561
  0.6587049308631503  0.8976553514400458  0.3670171269433284
  0.9881763862063000  0.3704811362850932  0.4999431145803682
  0.4619709583363713  0.3387938038990472  0.4999421761644541
  0.9934992878304518  0.4476042867376092  0.4999447920912136
  0.5004300415266140  0.4102288086406159  0.4999455865425456
  0.9918784137275102  0.5223335831212822  0.4999450274312389
  0.4915491812141771  0.4848143729365282  0.4999457048938552
  0.9905907725599755  0.5969133920432734  0.4999471257117616
  0.4908010535658479  0.5596522654303804  0.4999467271602124
  0.9905722986733190  0.6715447243863584  0.4999442275000817
  0.4907651920175635  0.6342290858755057  0.4999469974995321
  0.9918485049957194  0.7461284325177246  0.4999419685543048
  0.4907801510675273  0.7088081025884663  0.4999421851537101
  0.9934615205475772  0.8208595202334462  0.4999467376690985
  0.4915167566844038  0.7836492715093712  0.4999432820114818
  0.9881185091755921  0.8979819640714488  0.4999473569119703
  0.5003807807425473  0.8582337183152171  0.4999470387259987
  0.4619196560476257  0.9296651697044955  0.4999434077813118
 
  0.00000000E+00  0.00000000E+00  0.00000000E+00
  0.00000000E+00  0.00000000E+00  0.00000000E+00
  0.00000000E+00  0.00000000E+00  0.00000000E+00
  0.00000000E+00  0.00000000E+00  0.00000000E+00
  0.00000000E+00  0.00000000E+00  0.00000000E+00
  0.00000000E+00  0.00000000E+00  0.00000000E+00
  0.00000000E+00  0.00000000E+00  0.00000000E+00
  0.00000000E+00  0.00000000E+00  0.00000000E+00
  0.00000000E+00  0.00000000E+00  0.00000000E+00
  0.00000000E+00  0.00000000E+00  0.00000000E+00
  0.00000000E+00  0.00000000E+00  0.00000000E+00
  0.00000000E+00  0.00000000E+00  0.00000000E+00
  0.00000000E+00  0.00000000E+00  0.00000000E+00
  0.00000000E+00  0.00000000E+00  0.00000000E+00
  0.00000000E+00  0.00000000E+00  0.00000000E+00
  0.00000000E+00  0.00000000E+00  0.00000000E+00
  0.00000000E+00  0.00000000E+00  0.00000000E+00
  0.00000000E+00  0.00000000E+00  0.00000000E+00
  0.00000000E+00  0.00000000E+00  0.00000000E+00
  0.00000000E+00  0.00000000E+00  0.00000000E+00
  0.00000000E+00  0.00000000E+00  0.00000000E+00
  0.00000000E+00  0.00000000E+00  0.00000000E+00
  0.00000000E+00  0.00000000E+00  0.00000000E+00
  0.00000000E+00  0.00000000E+00  0.00000000E+00
  0.00000000E+00  0.00000000E+00  0.00000000E+00
  0.00000000E+00  0.00000000E+00  0.00000000E+00
  0.00000000E+00  0.00000000E+00  0.00000000E+00
  0.00000000E+00  0.00000000E+00  0.00000000E+00
  0.00000000E+00  0.00000000E+00  0.00000000E+00
  0.00000000E+00  0.00000000E+00  0.00000000E+00
  0.00000000E+00  0.00000000E+00  0.00000000E+00
  0.00000000E+00  0.00000000E+00  0.00000000E+00
  0.00000000E+00  0.00000000E+00  0.00000000E+00
  0.00000000E+00  0.00000000E+00  0.00000000E+00
  0.00000000E+00  0.00000000E+00  0.00000000E+00
  0.00000000E+00  0.00000000E+00  0.00000000E+00
  0.00000000E+00  0.00000000E+00  0.00000000E+00
  0.00000000E+00  0.00000000E+00  0.00000000E+00
  0.00000000E+00  0.00000000E+00  0.00000000E+00
  0.00000000E+00  0.00000000E+00  0.00000000E+00
  0.00000000E+00  0.00000000E+00  0.00000000E+00
  0.00000000E+00  0.00000000E+00  0.00000000E+00
  0.00000000E+00  0.00000000E+00  0.00000000E+00
  0.00000000E+00  0.00000000E+00  0.00000000E+00
  0.00000000E+00  0.00000000E+00  0.00000000E+00
  0.00000000E+00  0.00000000E+00  0.00000000E+00
  0.00000000E+00  0.00000000E+00  0.00000000E+00
  0.00000000E+00  0.00000000E+00  0.00000000E+00
  0.00000000E+00  0.00000000E+00  0.00000000E+00
  0.00000000E+00  0.00000000E+00  0.00000000E+00
  0.00000000E+00  0.00000000E+00  0.00000000E+00
  0.00000000E+00  0.00000000E+00  0.00000000E+00
  0.00000000E+00  0.00000000E+00  0.00000000E+00
  0.00000000E+00  0.00000000E+00  0.00000000E+00
  0.00000000E+00  0.00000000E+00  0.00000000E+00
  0.00000000E+00  0.00000000E+00  0.00000000E+00
  0.00000000E+00  0.00000000E+00  0.00000000E+00
  0.00000000E+00  0.00000000E+00  0.00000000E+00
  0.00000000E+00  0.00000000E+00  0.00000000E+00
  0.00000000E+00  0.00000000E+00  0.00000000E+00
  0.00000000E+00  0.00000000E+00  0.00000000E+00
  0.00000000E+00  0.00000000E+00  0.00000000E+00
  0.00000000E+00  0.00000000E+00  0.00000000E+00
  0.00000000E+00  0.00000000E+00  0.00000000E+00
  0.00000000E+00  0.00000000E+00  0.00000000E+00
  0.00000000E+00  0.00000000E+00  0.00000000E+00
  0.00000000E+00  0.00000000E+00  0.00000000E+00
  0.00000000E+00  0.00000000E+00  0.00000000E+00
  0.00000000E+00  0.00000000E+00  0.00000000E+00
  0.00000000E+00  0.00000000E+00  0.00000000E+00
  0.00000000E+00  0.00000000E+00  0.00000000E+00
  0.00000000E+00  0.00000000E+00  0.00000000E+00
  0.00000000E+00  0.00000000E+00  0.00000000E+00
  0.00000000E+00  0.00000000E+00  0.00000000E+00
  0.00000000E+00  0.00000000E+00  0.00000000E+00
  0.00000000E+00  0.00000000E+00  0.00000000E+00
  0.00000000E+00  0.00000000E+00  0.00000000E+00
  0.00000000E+00  0.00000000E+00  0.00000000E+00
  0.00000000E+00  0.00000000E+00  0.00000000E+00
  0.00000000E+00  0.00000000E+00  0.00000000E+00
  0.00000000E+00  0.00000000E+00  0.00000000E+00
  0.00000000E+00  0.00000000E+00  0.00000000E+00
  0.00000000E+00  0.00000000E+00  0.00000000E+00
  0.00000000E+00  0.00000000E+00  0.00000000E+00
  0.00000000E+00  0.00000000E+00  0.00000000E+00
  0.00000000E+00  0.00000000E+00  0.00000000E+00
  0.00000000E+00  0.00000000E+00  0.00000000E+00
  0.00000000E+00  0.00000000E+00  0.00000000E+00
  0.00000000E+00  0.00000000E+00  0.00000000E+00
  0.00000000E+00  0.00000000E+00  0.00000000E+00
  0.00000000E+00  0.00000000E+00  0.00000000E+00
  0.00000000E+00  0.00000000E+00  0.00000000E+00
  0.00000000E+00  0.00000000E+00  0.00000000E+00
  0.00000000E+00  0.00000000E+00  0.00000000E+00
  0.00000000E+00  0.00000000E+00  0.00000000E+00
  0.00000000E+00  0.00000000E+00  0.00000000E+00
  0.00000000E+00  0.00000000E+00  0.00000000E+00
  0.00000000E+00  0.00000000E+00  0.00000000E+00
  0.00000000E+00  0.00000000E+00  0.00000000E+00
  0.00000000E+00  0.00000000E+00  0.00000000E+00
  0.00000000E+00  0.00000000E+00  0.00000000E+00
  0.00000000E+00  0.00000000E+00  0.00000000E+00
  0.00000000E+00  0.00000000E+00  0.00000000E+00
  0.00000000E+00  0.00000000E+00  0.00000000E+00
  0.00000000E+00  0.00000000E+00  0.00000000E+00
  0.00000000E+00  0.00000000E+00  0.00000000E+00
  0.00000000E+00  0.00000000E+00  0.00000000E+00
  0.00000000E+00  0.00000000E+00  0.00000000E+00
  0.00000000E+00  0.00000000E+00  0.00000000E+00
  0.00000000E+00  0.00000000E+00  0.00000000E+00
  0.00000000E+00  0.00000000E+00  0.00000000E+00
  0.00000000E+00  0.00000000E+00  0.00000000E+00
  0.00000000E+00  0.00000000E+00  0.00000000E+00
  0.00000000E+00  0.00000000E+00  0.00000000E+00
  0.00000000E+00  0.00000000E+00  0.00000000E+00
  0.00000000E+00  0.00000000E+00  0.00000000E+00
  0.00000000E+00  0.00000000E+00  0.00000000E+00
  0.00000000E+00  0.00000000E+00  0.00000000E+00
  0.00000000E+00  0.00000000E+00  0.00000000E+00
