CONTCAR1                                
   1.00000000000000     
     5.0399999619000004    0.0000000000000000    0.0000000000000000
     0.0000000000000000   36.0000000000000000    0.0000000000000000
     0.0000000000000000    0.0000000000000000   23.0000000000000000
   N    Si   Mo
    60    30    15
Direct
  0.1954161738181964  0.1356705654765600  0.5581785210008845
  0.1954105940492488  0.1356701447304405  0.4417134189807325
  0.1582685331234836  0.2188783335575628  0.5532775200925515
  0.1582686918801672  0.2188780116795475  0.4466185374216992
  0.3265152794820653  0.1801752833375072  0.3466768866152990
  0.3265213575017400  0.1801761321284967  0.6532124067238633
  0.6640002434668010  0.1784723880786914  0.5545221126456522
  0.6640013330881502  0.1784715687722957  0.4453664411499910
  0.1561071534645773  0.3006638724430091  0.5547279128162936
  0.1560983202188409  0.3006632264182822  0.4451640875155968
  0.3251622516342483  0.2605601818758890  0.3478137251770862
  0.3251868900140868  0.2605600607400758  0.6520822530272765
  0.6594277227384854  0.2602251857802622  0.5544749984919566
  0.6594223692971865  0.2602258782122727  0.4454203395137299
  0.1557081814495457  0.3815590525696489  0.5548546009113957
  0.1557015452098978  0.3815581142819838  0.4450365063206040
  0.3249065451286808  0.3412134376862869  0.3469405498340469
  0.3249447106374174  0.3412149581528368  0.6529526735956067
  0.6558362615015656  0.3411034844505518  0.5547109360374510
  0.6558267946448572  0.3411025475709087  0.4451820844587044
  0.1556882066925216  0.4623286935343148  0.5548550391086050
  0.1556852902065979  0.4623280238210448  0.4450359887648646
  0.3250611368147452  0.4219412456144874  0.3468059636656612
  0.3250839515736834  0.4219427030138262  0.6530864991906443
  0.6551441399178091  0.4219440249391960  0.5548572862828307
  0.6551402166834479  0.4219437624295574  0.4450325704715978
  0.1560739476118687  0.5432235597532934  0.5547261497028615
  0.1560752637737244  0.5432230047172212  0.4451645528794552
  0.3248882455172816  0.5026691856175723  0.3469387776930120
  0.3249086661134901  0.5026716677876022  0.6529526546483814
  0.6558079365249796  0.5027832237886862  0.5547103514272347
  0.6558030114412233  0.5027831783892401  0.4451762126854089
  0.1582610565000263  0.6250079367043367  0.5532750719982341
  0.1582596571582025  0.6250078286800366  0.4466151202673878
  0.3251368071438239  0.5833234629433843  0.3478151271249574
  0.3251557479128138  0.5833273217175463  0.6520757996300177
  0.6594202751162854  0.5836619800519653  0.5544691064357838
  0.6594153987451900  0.5836612632298238  0.4454174430417000
  0.1953888330808262  0.7082134906549784  0.5581809606908518
  0.1953839598543904  0.7082126436945426  0.4417082505528404
  0.3264765584389244  0.6637126857129892  0.3466747237282987
  0.3264842105089360  0.6637132655519564  0.6532138581922119
  0.6639818300998631  0.6654159924701590  0.5545248074226317
  0.6639812093477994  0.6654160916759498  0.4453631907370139
  0.8204846592124482  0.1384790053172402  0.3444656319315007
  0.8204832669977904  0.1384817665050792  0.6554227740601397
  0.8241860875143135  0.2198901900755053  0.3481708756814659
  0.8241916125624099  0.2198898258731554  0.6517253150192914
  0.8246409769614003  0.3007598134481014  0.3471273617136873
  0.8246833678933789  0.3007611233607580  0.6527651621684801
  0.8249317185216890  0.3815404175166104  0.3469136800065045
  0.8249637431570641  0.3815428549756730  0.6529800513195285
  0.8249235885596857  0.4623426089981974  0.3469106865211941
  0.8249387589528989  0.4623441664838935  0.6529826420152458
  0.8246283423210283  0.5431267807511877  0.3471262352752100
  0.8246467889218507  0.5431287912823842  0.6527624370855563
  0.8241672502020309  0.6239960164022498  0.3481673154217949
  0.8241673310554719  0.6239980011968224  0.6517238003791354
  0.8204310413402364  0.7054084512198671  0.3444612021471569
  0.8204472218585783  0.7054084817365891  0.6554267239345817
  0.1162832711064350  0.1451037241595161  0.6278452105001046
  0.1162916316177785  0.1451008957558405  0.3720453297353100
  0.1550579068773113  0.2204229144233995  0.6303891462731608
  0.1550551937888097  0.2204219013208707  0.3695085281327503
  0.6585790272386530  0.1769842523938049  0.6328497613493030
  0.6585701119846263  0.1769841953456431  0.3670329322770397
  0.1560382505271010  0.3009057332911523  0.6308370523984385
  0.1559937521442155  0.3009045301959727  0.3690552223092489
  0.6574577503626928  0.2600548427292623  0.6307747833410534
  0.6574238299996947  0.2600540550715638  0.3691217740355231
  0.1564374785627844  0.3815853442093974  0.6309757104799408
  0.1564061718329760  0.3815832478264012  0.3689169293823689
  0.6563772541284164  0.3411336678186103  0.6308490584154601
  0.6563330743284516  0.3411307362023264  0.3690470883639440
  0.1564010553072202  0.4623013906901748  0.6309772919467344
  0.1563829570436516  0.4622988570365381  0.3689184694798311
  0.6564723845227748  0.4219435147823785  0.6309653936911812
  0.6564453018191095  0.4219418067121119  0.3689289535004427
  0.1559916291859069  0.5429798595449822  0.6308342322739223
  0.1559713065342093  0.5429778018172324  0.3690593175936868
  0.6563385144110294  0.5027556213700244  0.6308507412643728
  0.6563140657641777  0.5027540809624582  0.3690361425001863
  0.1550361096009814  0.6234659042725794  0.6303866791331414
  0.1550368272807009  0.6234650199612642  0.3695037633554241
  0.6574426122177615  0.5838350135296247  0.6307658167606132
  0.6574165063764136  0.5838335171491862  0.3691214426726348
  0.1162317204484005  0.6987885885262757  0.6278520103435598
  0.1162188508667232  0.6987874240636966  0.3720385156092873
  0.6585470528923124  0.6669038940819115  0.6328549254174302
  0.6585439468735603  0.6669028401081563  0.3670295766150498
  0.9883082187620704  0.1766394478495638  0.4999460702750714
  0.4623821964408114  0.1423314696149063  0.4999454490926254
  0.9936281933141299  0.2601720365316674  0.4999474215616422
  0.5004884549624536  0.2197159194911771  0.4999463522752599
  0.9918532705182440  0.3411170069211906  0.4999467159188109
  0.4916346477504850  0.3004956768459488  0.4999474738881325
  0.9904911428596662  0.4219441283538392  0.4999481897755712
  0.4907868456105255  0.3815484970521286  0.4999477783721155
  0.9918280573415994  0.5027703318800386  0.4999474856808764
  0.4907702919217385  0.4623388420547206  0.4999479292290512
  0.9936167671954371  0.5837150546286738  0.4999456213021808
  0.4916176992554524  0.5433908292845073  0.4999462737105868
  0.9882864306364596  0.6672443695604365  0.4999445643375675
  0.5004752513776405  0.6241717109542334  0.4999436646524624
  0.4623565012486219  0.7015531110445391  0.4999433424234739
 
  0.00000000E+00  0.00000000E+00  0.00000000E+00
  0.00000000E+00  0.00000000E+00  0.00000000E+00
  0.00000000E+00  0.00000000E+00  0.00000000E+00
  0.00000000E+00  0.00000000E+00  0.00000000E+00
  0.00000000E+00  0.00000000E+00  0.00000000E+00
  0.00000000E+00  0.00000000E+00  0.00000000E+00
  0.00000000E+00  0.00000000E+00  0.00000000E+00
  0.00000000E+00  0.00000000E+00  0.00000000E+00
  0.00000000E+00  0.00000000E+00  0.00000000E+00
  0.00000000E+00  0.00000000E+00  0.00000000E+00
  0.00000000E+00  0.00000000E+00  0.00000000E+00
  0.00000000E+00  0.00000000E+00  0.00000000E+00
  0.00000000E+00  0.00000000E+00  0.00000000E+00
  0.00000000E+00  0.00000000E+00  0.00000000E+00
  0.00000000E+00  0.00000000E+00  0.00000000E+00
  0.00000000E+00  0.00000000E+00  0.00000000E+00
  0.00000000E+00  0.00000000E+00  0.00000000E+00
  0.00000000E+00  0.00000000E+00  0.00000000E+00
  0.00000000E+00  0.00000000E+00  0.00000000E+00
  0.00000000E+00  0.00000000E+00  0.00000000E+00
  0.00000000E+00  0.00000000E+00  0.00000000E+00
  0.00000000E+00  0.00000000E+00  0.00000000E+00
  0.00000000E+00  0.00000000E+00  0.00000000E+00
  0.00000000E+00  0.00000000E+00  0.00000000E+00
  0.00000000E+00  0.00000000E+00  0.00000000E+00
  0.00000000E+00  0.00000000E+00  0.00000000E+00
  0.00000000E+00  0.00000000E+00  0.00000000E+00
  0.00000000E+00  0.00000000E+00  0.00000000E+00
  0.00000000E+00  0.00000000E+00  0.00000000E+00
  0.00000000E+00  0.00000000E+00  0.00000000E+00
  0.00000000E+00  0.00000000E+00  0.00000000E+00
  0.00000000E+00  0.00000000E+00  0.00000000E+00
  0.00000000E+00  0.00000000E+00  0.00000000E+00
  0.00000000E+00  0.00000000E+00  0.00000000E+00
  0.00000000E+00  0.00000000E+00  0.00000000E+00
  0.00000000E+00  0.00000000E+00  0.00000000E+00
  0.00000000E+00  0.00000000E+00  0.00000000E+00
  0.00000000E+00  0.00000000E+00  0.00000000E+00
  0.00000000E+00  0.00000000E+00  0.00000000E+00
  0.00000000E+00  0.00000000E+00  0.00000000E+00
  0.00000000E+00  0.00000000E+00  0.00000000E+00
  0.00000000E+00  0.00000000E+00  0.00000000E+00
  0.00000000E+00  0.00000000E+00  0.00000000E+00
  0.00000000E+00  0.00000000E+00  0.00000000E+00
  0.00000000E+00  0.00000000E+00  0.00000000E+00
  0.00000000E+00  0.00000000E+00  0.00000000E+00
  0.00000000E+00  0.00000000E+00  0.00000000E+00
  0.00000000E+00  0.00000000E+00  0.00000000E+00
  0.00000000E+00  0.00000000E+00  0.00000000E+00
  0.00000000E+00  0.00000000E+00  0.00000000E+00
  0.00000000E+00  0.00000000E+00  0.00000000E+00
  0.00000000E+00  0.00000000E+00  0.00000000E+00
  0.00000000E+00  0.00000000E+00  0.00000000E+00
  0.00000000E+00  0.00000000E+00  0.00000000E+00
  0.00000000E+00  0.00000000E+00  0.00000000E+00
  0.00000000E+00  0.00000000E+00  0.00000000E+00
  0.00000000E+00  0.00000000E+00  0.00000000E+00
  0.00000000E+00  0.00000000E+00  0.00000000E+00
  0.00000000E+00  0.00000000E+00  0.00000000E+00
  0.00000000E+00  0.00000000E+00  0.00000000E+00
  0.00000000E+00  0.00000000E+00  0.00000000E+00
  0.00000000E+00  0.00000000E+00  0.00000000E+00
  0.00000000E+00  0.00000000E+00  0.00000000E+00
  0.00000000E+00  0.00000000E+00  0.00000000E+00
  0.00000000E+00  0.00000000E+00  0.00000000E+00
  0.00000000E+00  0.00000000E+00  0.00000000E+00
  0.00000000E+00  0.00000000E+00  0.00000000E+00
  0.00000000E+00  0.00000000E+00  0.00000000E+00
  0.00000000E+00  0.00000000E+00  0.00000000E+00
  0.00000000E+00  0.00000000E+00  0.00000000E+00
  0.00000000E+00  0.00000000E+00  0.00000000E+00
  0.00000000E+00  0.00000000E+00  0.00000000E+00
  0.00000000E+00  0.00000000E+00  0.00000000E+00
  0.00000000E+00  0.00000000E+00  0.00000000E+00
  0.00000000E+00  0.00000000E+00  0.00000000E+00
  0.00000000E+00  0.00000000E+00  0.00000000E+00
  0.00000000E+00  0.00000000E+00  0.00000000E+00
  0.00000000E+00  0.00000000E+00  0.00000000E+00
  0.00000000E+00  0.00000000E+00  0.00000000E+00
  0.00000000E+00  0.00000000E+00  0.00000000E+00
  0.00000000E+00  0.00000000E+00  0.00000000E+00
  0.00000000E+00  0.00000000E+00  0.00000000E+00
  0.00000000E+00  0.00000000E+00  0.00000000E+00
  0.00000000E+00  0.00000000E+00  0.00000000E+00
  0.00000000E+00  0.00000000E+00  0.00000000E+00
  0.00000000E+00  0.00000000E+00  0.00000000E+00
  0.00000000E+00  0.00000000E+00  0.00000000E+00
  0.00000000E+00  0.00000000E+00  0.00000000E+00
  0.00000000E+00  0.00000000E+00  0.00000000E+00
  0.00000000E+00  0.00000000E+00  0.00000000E+00
  0.00000000E+00  0.00000000E+00  0.00000000E+00
  0.00000000E+00  0.00000000E+00  0.00000000E+00
  0.00000000E+00  0.00000000E+00  0.00000000E+00
  0.00000000E+00  0.00000000E+00  0.00000000E+00
  0.00000000E+00  0.00000000E+00  0.00000000E+00
  0.00000000E+00  0.00000000E+00  0.00000000E+00
  0.00000000E+00  0.00000000E+00  0.00000000E+00
  0.00000000E+00  0.00000000E+00  0.00000000E+00
  0.00000000E+00  0.00000000E+00  0.00000000E+00
  0.00000000E+00  0.00000000E+00  0.00000000E+00
  0.00000000E+00  0.00000000E+00  0.00000000E+00
  0.00000000E+00  0.00000000E+00  0.00000000E+00
  0.00000000E+00  0.00000000E+00  0.00000000E+00
  0.00000000E+00  0.00000000E+00  0.00000000E+00
  0.00000000E+00  0.00000000E+00  0.00000000E+00
