POSCAR\(8)                              
   1.00000000000000     
    65.0000000000000000    0.0000000000000000    0.0000000000000000
     0.0000000000000000    2.9100000858000001    0.0000000000000000
     0.0000000000000000    0.0000000000000000   23.0000000000000000
   Mo   N    Si
    16    64    32
Direct
  0.0345923637509519 -0.0000000000000000  0.4999537668904330
  0.0729336603373058  0.5000000000000000  0.4999584363331787
  0.1121435609754655 -0.0000000000000000  0.4999570287691792
  0.1511186276180809  0.5000000000000000  0.4999531374410944
  0.1899447434993517 -0.0000000000000000  0.4999503540146674
  0.2287176226769630  0.5000000000000000  0.4999484659494266
  0.2674727323634536 -0.0000000000000000  0.4999474118220514
  0.3062171654947888  0.5000000000000000  0.4999469262371538
  0.3449566255930588 -0.0000000000000000  0.4999429440514459
  0.3837063789178701  0.5000000000000000  0.4999389124543198
  0.4224691517400010 -0.0000000000000000  0.4999380794601010
  0.4612359939437772  0.5000000000000000  0.4999360769335146
  0.5000104546276739 -0.0000000000000000  0.4999349741240938
  0.5388451635807504  0.5000000000000000  0.4999345871411988
  0.5777459135614886 -0.0000000000000000  0.4999530267744560
  0.6177903556554714  0.5000000000000000  0.4999527784534829
  0.0457674573547978  0.5000000000000000  0.5554403471516891
  0.0457690940415141  0.5000000000000000  0.4444660460815464
  0.0611079229013083  0.0000000000000000  0.3476229815255465
  0.0611097789857604 -0.0000000000000000  0.6523041275193019
  0.0860618562130668  0.0000000000000000  0.5538784283768902
  0.0860593632086250  0.0000000000000000  0.4460291134074113
  0.0997006410404841  0.5000000000000000  0.3481470993797857
  0.0997031828898536  0.5000000000000000  0.6517914684217374
  0.1251905284887339  0.5000000000000000  0.5540054074645023
  0.1251888810576017  0.5000000000000000  0.4459005943099459
  0.1383765145577235  0.0000000000000000  0.3478484746982518
  0.1383792422097349 -0.0000000000000000  0.6520817586050749
  0.1640779293047664 -0.0000000000000000  0.5541571636272774
  0.1640768648770205 -0.0000000000000000  0.4457405135799163
  0.1770997102689337  0.5000000000000000  0.3476584452811217
  0.1771018509164287  0.5000000000000000  0.6522593902367486
  0.2028647968087267  0.5000000000000000  0.5542022303603298
  0.2028641002273968  0.5000000000000000  0.4456888771904402
  0.2158299591980176  0.0000000000000000  0.3476197392041161
  0.2158320370295118 -0.0000000000000000  0.6522894043087321
  0.2416303524066771 -0.0000000000000000  0.5542081371962955
  0.2416295878581084 -0.0000000000000000  0.4456815837416113
  0.2545656826412552  0.5000000000000000  0.3476046753007160
  0.2545676836235183  0.5000000000000000  0.6523007539972758
  0.2803764888651649  0.5000000000000000  0.5542056458411297
  0.2803760720668429  0.5000000000000000  0.4456827149444660
  0.2933024139470240  0.0000000000000000  0.3476140368746682
  0.2933043851116067 -0.0000000000000000  0.6522882937868408
  0.3191097013149769 -0.0000000000000000  0.5542074716848410
  0.3191082434811636 -0.0000000000000000  0.4456809132604458
  0.3320444972151889  0.5000000000000000  0.3476092098044837
  0.3320469155876239  0.5000000000000000  0.6522926379210988
  0.3578471421153419  0.5000000000000000  0.5541999235587481
  0.3578466202660375  0.5000000000000000  0.4456804134790929
  0.3707980111575220  0.0000000000000000  0.3476124274489769
  0.3708009588247264 -0.0000000000000000  0.6522743204448773
  0.3966095768641045  0.0000000000000000  0.5541877769071734
  0.3966086454769220 -0.0000000000000000  0.4456884284116476
  0.4095652379869040  0.5000000000000000  0.3476417864203930
  0.4095697248595238  0.5000000000000000  0.6522416750360260
  0.4353801259541100  0.5000000000000000  0.5541658131476942
  0.4353791997763384  0.5000000000000000  0.4457130135267587
  0.4483403788956786 -0.0000000000000000  0.3477110715650891
  0.4483477648054523 -0.0000000000000000  0.6521701500930920
  0.4741398315026472  0.0000000000000000  0.5541225988697931
  0.4741387615175328  0.0000000000000000  0.4457540471165468
  0.4871170313109990  0.5000000000000000  0.3478062047881318
  0.4871291138642454  0.5000000000000000  0.6520649493425976
  0.5129095556777774  0.5000000000000000  0.5539994976969485
  0.5129072635866498  0.5000000000000000  0.4458768126359497
  0.5258843501561441 -0.0000000000000000  0.3480639634960805
  0.5258996608121969 -0.0000000000000000  0.6518011320216172
  0.5517679119145705 -0.0000000000000000  0.5536591884109286
  0.5517658492194859  0.0000000000000000  0.4462076359551828
  0.5645681024476539  0.5000000000000000  0.3487522449145773
  0.5645759091201700  0.5000000000000000  0.6511146675264647
  0.5907297308339953  0.5000000000000000  0.5531183085368930
  0.5907246272260295  0.5000000000000000  0.4467548505714782
  0.6029577099203048  0.0000000000000000  0.3479922020406391
  0.6029589421363873  0.0000000000000000  0.6519077866186043
  0.6281187269085631 -0.0000000000000000  0.5543661264926993
  0.6281021964981599 -0.0000000000000000  0.4454890937007648
  0.6409784674957080  0.5000000000000000  0.3472673478189584
  0.6409835082537972  0.5000000000000000  0.6525899908074964
  0.0474091150293977  0.5000000000000000  0.6321331441592772
  0.0474102110858681  0.5000000000000000  0.3677857767621601
  0.0867379230587478 -0.0000000000000000  0.6300722905790097
  0.0867344862037051  0.0000000000000000  0.3698451893742914
  0.1255192778182867  0.5000000000000000  0.6300647897380290
  0.1255159679331093  0.5000000000000000  0.3698434024043968
  0.1642497057422120 -0.0000000000000000  0.6301579554410974
  0.1642472173836917 -0.0000000000000000  0.3697416009279444
  0.2029795701539120  0.5000000000000000  0.6301993944791253
  0.2029775955516751  0.5000000000000000  0.3696935584174332
  0.2417141619307965 -0.0000000000000000  0.6302115972484988
  0.2417120626616156  0.0000000000000000  0.3696808378396633
  0.2804487222182246  0.5000000000000000  0.6302036303598015
  0.2804469504260668  0.5000000000000000  0.3696877639520431
  0.3191888022028084 -0.0000000000000000  0.6302050235179024
  0.3191871097415689 -0.0000000000000000  0.3696873096781919
  0.3579360813137885  0.5000000000000000  0.6302073268409207
  0.3579348615486027  0.5000000000000000  0.3696751786569614
  0.3966975559143967 -0.0000000000000000  0.6302032395160359
  0.3966953912339234 -0.0000000000000000  0.3696742982137018
  0.4354736161063512  0.5000000000000000  0.6301829840824174
  0.4354695129152679  0.5000000000000000  0.3696967357271139
  0.4742627284535240 -0.0000000000000000  0.6301712101477744
  0.4742556508686566  0.0000000000000000  0.3697067317605835
  0.5130683169568372  0.5000000000000000  0.6301392940098781
  0.5130567539562629  0.5000000000000000  0.3697390795638438
  0.5518998201646367 -0.0000000000000000  0.6300484904686027
  0.5518863256337645 -0.0000000000000000  0.3698269762260906
  0.5908614175522567  0.5000000000000000  0.6305498424983772
  0.5908513858210892  0.5000000000000000  0.3693423119650411
  0.6299401830810286 -0.0000000000000000  0.6313912398256616
  0.6299367739166011 -0.0000000000000000  0.3685016102819841
 
  0.00000000E+00  0.00000000E+00  0.00000000E+00
  0.00000000E+00  0.00000000E+00  0.00000000E+00
  0.00000000E+00  0.00000000E+00  0.00000000E+00
  0.00000000E+00  0.00000000E+00  0.00000000E+00
  0.00000000E+00  0.00000000E+00  0.00000000E+00
  0.00000000E+00  0.00000000E+00  0.00000000E+00
  0.00000000E+00  0.00000000E+00  0.00000000E+00
  0.00000000E+00  0.00000000E+00  0.00000000E+00
  0.00000000E+00  0.00000000E+00  0.00000000E+00
  0.00000000E+00  0.00000000E+00  0.00000000E+00
  0.00000000E+00  0.00000000E+00  0.00000000E+00
  0.00000000E+00  0.00000000E+00  0.00000000E+00
  0.00000000E+00  0.00000000E+00  0.00000000E+00
  0.00000000E+00  0.00000000E+00  0.00000000E+00
  0.00000000E+00  0.00000000E+00  0.00000000E+00
  0.00000000E+00  0.00000000E+00  0.00000000E+00
  0.00000000E+00  0.00000000E+00  0.00000000E+00
  0.00000000E+00  0.00000000E+00  0.00000000E+00
  0.00000000E+00  0.00000000E+00  0.00000000E+00
  0.00000000E+00  0.00000000E+00  0.00000000E+00
  0.00000000E+00  0.00000000E+00  0.00000000E+00
  0.00000000E+00  0.00000000E+00  0.00000000E+00
  0.00000000E+00  0.00000000E+00  0.00000000E+00
  0.00000000E+00  0.00000000E+00  0.00000000E+00
  0.00000000E+00  0.00000000E+00  0.00000000E+00
  0.00000000E+00  0.00000000E+00  0.00000000E+00
  0.00000000E+00  0.00000000E+00  0.00000000E+00
  0.00000000E+00  0.00000000E+00  0.00000000E+00
  0.00000000E+00  0.00000000E+00  0.00000000E+00
  0.00000000E+00  0.00000000E+00  0.00000000E+00
  0.00000000E+00  0.00000000E+00  0.00000000E+00
  0.00000000E+00  0.00000000E+00  0.00000000E+00
  0.00000000E+00  0.00000000E+00  0.00000000E+00
  0.00000000E+00  0.00000000E+00  0.00000000E+00
  0.00000000E+00  0.00000000E+00  0.00000000E+00
  0.00000000E+00  0.00000000E+00  0.00000000E+00
  0.00000000E+00  0.00000000E+00  0.00000000E+00
  0.00000000E+00  0.00000000E+00  0.00000000E+00
  0.00000000E+00  0.00000000E+00  0.00000000E+00
  0.00000000E+00  0.00000000E+00  0.00000000E+00
  0.00000000E+00  0.00000000E+00  0.00000000E+00
  0.00000000E+00  0.00000000E+00  0.00000000E+00
  0.00000000E+00  0.00000000E+00  0.00000000E+00
  0.00000000E+00  0.00000000E+00  0.00000000E+00
  0.00000000E+00  0.00000000E+00  0.00000000E+00
  0.00000000E+00  0.00000000E+00  0.00000000E+00
  0.00000000E+00  0.00000000E+00  0.00000000E+00
  0.00000000E+00  0.00000000E+00  0.00000000E+00
  0.00000000E+00  0.00000000E+00  0.00000000E+00
  0.00000000E+00  0.00000000E+00  0.00000000E+00
  0.00000000E+00  0.00000000E+00  0.00000000E+00
  0.00000000E+00  0.00000000E+00  0.00000000E+00
  0.00000000E+00  0.00000000E+00  0.00000000E+00
  0.00000000E+00  0.00000000E+00  0.00000000E+00
  0.00000000E+00  0.00000000E+00  0.00000000E+00
  0.00000000E+00  0.00000000E+00  0.00000000E+00
  0.00000000E+00  0.00000000E+00  0.00000000E+00
  0.00000000E+00  0.00000000E+00  0.00000000E+00
  0.00000000E+00  0.00000000E+00  0.00000000E+00
  0.00000000E+00  0.00000000E+00  0.00000000E+00
  0.00000000E+00  0.00000000E+00  0.00000000E+00
  0.00000000E+00  0.00000000E+00  0.00000000E+00
  0.00000000E+00  0.00000000E+00  0.00000000E+00
  0.00000000E+00  0.00000000E+00  0.00000000E+00
  0.00000000E+00  0.00000000E+00  0.00000000E+00
  0.00000000E+00  0.00000000E+00  0.00000000E+00
  0.00000000E+00  0.00000000E+00  0.00000000E+00
  0.00000000E+00  0.00000000E+00  0.00000000E+00
  0.00000000E+00  0.00000000E+00  0.00000000E+00
  0.00000000E+00  0.00000000E+00  0.00000000E+00
  0.00000000E+00  0.00000000E+00  0.00000000E+00
  0.00000000E+00  0.00000000E+00  0.00000000E+00
  0.00000000E+00  0.00000000E+00  0.00000000E+00
  0.00000000E+00  0.00000000E+00  0.00000000E+00
  0.00000000E+00  0.00000000E+00  0.00000000E+00
  0.00000000E+00  0.00000000E+00  0.00000000E+00
  0.00000000E+00  0.00000000E+00  0.00000000E+00
  0.00000000E+00  0.00000000E+00  0.00000000E+00
  0.00000000E+00  0.00000000E+00  0.00000000E+00
  0.00000000E+00  0.00000000E+00  0.00000000E+00
  0.00000000E+00  0.00000000E+00  0.00000000E+00
  0.00000000E+00  0.00000000E+00  0.00000000E+00
  0.00000000E+00  0.00000000E+00  0.00000000E+00
  0.00000000E+00  0.00000000E+00  0.00000000E+00
  0.00000000E+00  0.00000000E+00  0.00000000E+00
  0.00000000E+00  0.00000000E+00  0.00000000E+00
  0.00000000E+00  0.00000000E+00  0.00000000E+00
  0.00000000E+00  0.00000000E+00  0.00000000E+00
  0.00000000E+00  0.00000000E+00  0.00000000E+00
  0.00000000E+00  0.00000000E+00  0.00000000E+00
  0.00000000E+00  0.00000000E+00  0.00000000E+00
  0.00000000E+00  0.00000000E+00  0.00000000E+00
  0.00000000E+00  0.00000000E+00  0.00000000E+00
  0.00000000E+00  0.00000000E+00  0.00000000E+00
  0.00000000E+00  0.00000000E+00  0.00000000E+00
  0.00000000E+00  0.00000000E+00  0.00000000E+00
  0.00000000E+00  0.00000000E+00  0.00000000E+00
  0.00000000E+00  0.00000000E+00  0.00000000E+00
  0.00000000E+00  0.00000000E+00  0.00000000E+00
  0.00000000E+00  0.00000000E+00  0.00000000E+00
  0.00000000E+00  0.00000000E+00  0.00000000E+00
  0.00000000E+00  0.00000000E+00  0.00000000E+00
  0.00000000E+00  0.00000000E+00  0.00000000E+00
  0.00000000E+00  0.00000000E+00  0.00000000E+00
  0.00000000E+00  0.00000000E+00  0.00000000E+00
  0.00000000E+00  0.00000000E+00  0.00000000E+00
  0.00000000E+00  0.00000000E+00  0.00000000E+00
  0.00000000E+00  0.00000000E+00  0.00000000E+00
  0.00000000E+00  0.00000000E+00  0.00000000E+00
  0.00000000E+00  0.00000000E+00  0.00000000E+00
  0.00000000E+00  0.00000000E+00  0.00000000E+00
  0.00000000E+00  0.00000000E+00  0.00000000E+00
