 CONTCAR1                               
   1.00000000000000     
    34.0000000000000000    0.0000000000000000    0.0000000000000000
     0.0000000000000000    8.7300004959000006    0.0000000000000000
     0.0000000000000000    0.0000000000000000   23.0000000000000000
   Mo   N    Si
    24   106    48
Selective dynamics
Direct
  0.3764389853629587 -0.0014500235240785  0.4905763884269416   T   T   T
  0.3749396536959778  0.3333378641165620  0.5000502772794027   T   T   T
  0.3764377798884685  0.6681476521745091  0.5095473213845967   T   T   T
  0.4509012517848968  0.1661897727836624  0.5010178929271284   T   T   T
  0.4509016006692669  0.5005077657706472  0.4990239850609477   T   T   T
  0.4502843343153849  0.8333478441452005  0.5000242194559018   T   T   T
  0.5228114466247944 -0.0001139141005343  0.5000458517528874   T   T   T
  0.5228543433443024  0.3333526188419346  0.4999876103884070   T   T   T
  0.5228093380696649  0.6668101777628602  0.4999335966189753   T   T   T
  0.5960490629044141  0.1666469752744540  0.4999430319308786   T   T   T
  0.5960494171737400  0.5000490794641660  0.4999842096243219   T   T   T
  0.5960890424491490  0.8333552145091611  0.4999650752092696   T   T   T
  0.6698838858106775 -0.0000006784689297  0.4999590006263700   T   T   T
  0.6698662267392793  0.3333425385134980  0.4999478684001852   T   T   T
  0.6698844244527077  0.6666958530434547  0.4999373203005894   T   T   T
  0.7440523855101778  0.1668060827422473  0.4998960316739529   T   T   T
  0.7440527602038268  0.4998686737725703  0.4999846260891336   T   T   T
  0.7440672931777681  0.8333320398770542  0.4999392932871160   T   T   T
  0.8186073299999990  0.0003462199999973  0.4994097590000024   F   F   F
  0.8187517280000023  0.3333150540000034  0.4999405399999972   F   F   F
  0.8186085640000016  0.6662969220000008  0.5004766710000013   F   F   F
  0.8949177120000016  0.1683903899999990  0.4972147730000032   F   F   F
  0.8949169830000017  0.4982311690000003  0.5027087249999980   F   F   F
  0.8943918450000012  0.8333183860000020  0.4999700210000029   F   F   F
  0.3999601984659312  0.1562440021963684  0.5479346477209108   T   T   T
  0.4049188027093832  0.4950814562002288  0.5493920927090401   T   T   T
  0.4018320539903912  0.8487550135953279  0.5505000062026533   T   T   T
  0.4048987359831296  0.1715807043546610  0.4506873365309511   T   T   T
  0.3999368071021724  0.5104386078968340  0.4521538140098268   T   T   T
  0.4018042188343353  0.8179353911023882  0.4496073280388208   T   T   T
  0.4195898642854817  0.0149880706964528  0.3497904387755751   T   T   T
  0.4190008216282693  0.3375258830482255  0.3508723919522301   T   T   T
  0.4240060452113864  0.7035825463820187  0.3420370294732012   T   T   T
  0.4240540347349963 -0.0368974205903360  0.6580584578200841   T   T   T
  0.4190525572295808  0.3291200030256430  0.6492002299555411   T   T   T
  0.4196452349018471  0.6516439692249314  0.6502911306515251   T   T   T
  0.4734009733427758 -0.0006678228768337  0.5549621552274600   T   T   T
  0.4735752470602368  0.3330484335227568  0.5547952929309587   T   T   T
  0.4735403036173620  0.6664290643791160  0.5547388643995678   T   T   T
  0.4735212958103271  0.0002605618262440  0.4452876316357029   T   T   T
  0.4735559425281891  0.3336672572982365  0.4452253263918560   T   T   T
  0.4733812550874141  0.6673621494827112  0.4450704904040300   T   T   T
  0.4953382057793422  0.1706051446484517  0.3474420803091289   T   T   T
  0.4955262350857068  0.5017831573986241  0.3473852930528777   T   T   T
  0.4958453877658259  0.8375799904791318  0.3475766277437806   T   T   T
  0.4955699945539054  0.1649082374762417  0.6526151914260045   T   T   T
  0.4953872002821007  0.4960823662335152  0.6525675227524259   T   T   T
  0.4958849804222706  0.8290985751372265  0.6524380443921568   T   T   T
  0.5468653434289233  0.1665971323276020  0.5544579848477683   T   T   T
  0.5468124845617450  0.4998874457650945  0.5545092334756820   T   T   T
  0.5469263245932418  0.8329197479333981  0.5544094823699466   T   T   T
  0.5467962093537153  0.1668061754709595  0.4454495240199045   T   T   T
  0.5468477894036123  0.5001055874530882  0.4454994215180250   T   T   T
  0.5469099109742579  0.8337793815942871  0.4455556035584882   T   T   T
  0.5700611482130167  0.0019650531833289  0.3475813323660351   T   T   T
  0.5700743146163496  0.3346322759127634  0.3475399400614504   T   T   T
  0.5699821028260099  0.6680071024285088  0.3476543899190164   T   T   T
  0.5700074660995110  0.9986755833337485  0.6522926948029393   T   T   T
  0.5701059323949551  0.3320510148110422  0.6524032200323475   T   T   T
  0.5700931612453176  0.6647211688084795  0.6523636800433849   T   T   T
  0.6204716163121311 -0.0000968274271571  0.5542647758028184   T   T   T
  0.6204719829112296  0.3332354381172223  0.5542578383181044   T   T   T
  0.6204857893052569  0.6665571917463218  0.5542538539192901   T   T   T
  0.6204733938289125  0.0001473193978347  0.4456504677019265   T   T   T
  0.6204598423617688  0.3334633660106152  0.4456492982125276   T   T   T
  0.6204610550729723  0.6667961782515786  0.4456420411925786   T   T   T
  0.6442788842669966  0.1674345681481592  0.3476800687286427   T   T   T
  0.6443047737362475  0.5006757239219679  0.3476859532822044   T   T   T
  0.6442662050795870  0.8340845718301793  0.3476933884035720   T   T   T
  0.6443188775363273  0.1660205508113841  0.6522161409043686   T   T   T
  0.6442973718186132  0.4992697648684074  0.6522145560709737   T   T   T
  0.6442834805624108  0.8326259559097459  0.6522100081380504   T   T   T
  0.6944716210572845  0.1666475490255955  0.5541145008913890   T   T   T
  0.6944373964433200  0.4999270912171513  0.5541244652891573   T   T   T
  0.6944846397974093  0.8332871606518706  0.5541291899329611   T   T   T
  0.6944315086314530  0.1667573703138686  0.4457363214894274   T   T   T
  0.6944674000995027  0.5000347109533742  0.4457542410637832   T   T   T
  0.6944793930435338  0.8334134019245838  0.4457364980073641   T   T   T
  0.7182937177299111  0.0005686452380564  0.3477345508703355   T   T   T
  0.7183684952703852  0.3335090655714161  0.3478353222306104   T   T   T
  0.7183727103512698  0.6669877124442170  0.3479160251464741   T   T   T
  0.7183710810768891  0.9997121988232325  0.6519623532273944   T   T   T
  0.7183737665826718  0.3331859727006697  0.6520391741130549   T   T   T
  0.7183021339467012  0.6661201969217125  0.6521341575830392   T   T   T
  0.7688456808753642  0.0001829386871125  0.5537238185061982   T   T   T
  0.7687945671590324  0.3333234000697327  0.5539444404714946   T   T   T
  0.7686592137332577  0.6664055111446123  0.5541605564418920   T   T   T
  0.7686586857074158  0.0002537200662884  0.4457052402295459   T   T   T
  0.7687976195893894  0.3333619643876407  0.4459169414560527   T   T   T
  0.7688521728083275  0.6664700351624387  0.4461353962459029   T   T   T
  0.7924403580000003  0.1668991949999992  0.3477258679999977   F   F   F
  0.7920809350000013  0.4997521319999976  0.3485803189999999   F   F   F
  0.7918958659999973  0.8338193649999965  0.3481265360000023   F   F   F
  0.7920615809999987  0.1669017489999973  0.6512714469999992   F   F   F
  0.7924372729999973  0.4997758370000014  0.6521520200000026   F   F   F
  0.7918833559999996  0.8328482670000028  0.6517527620000010   F   F   F
  0.8437314869999994  0.1662134890000004  0.5524910219999981   F   F   F
  0.8434264240000005  0.4992424129999975  0.5546842239999989   F   F   F
  0.8432040499999971  0.8342123600000022  0.5534373570000000   F   F   F
  0.8434354560000017  0.1673776849999982  0.4452039060000033   F   F   F
  0.8437378830000029  0.5004141869999970  0.4474010050000032   F   F   F
  0.8432168399999966  0.8324396510000014  0.4464683949999966   F   F   F
  0.8660135269999998  0.9978138680000015  0.3463631300000003   F   F   F
  0.8661235920000010  0.3364354420000026  0.3469893830000004   F   F   F
  0.8642563539999983  0.6667564449999972  0.3483143679999969   F   F   F
  0.8642337459999965  0.9998748100000014  0.6516193719999990   F   F   F
  0.8661041260000033  0.3301647329999966  0.6529160790000006   F   F   F
  0.8659944529999990  0.6688152010000010  0.6535493189999997   F   F   F
  0.9183411320000019  0.0021640499999975  0.5505992229999990   F   F   F
  0.9166093709999998  0.3248715949999976  0.5552934560000011   F   F   F
  0.9170204050000024  0.6757266629999990  0.5565031719999993   F   F   F
  0.9170354959999969  0.9909249099999968  0.4434414320000002   F   F   F
  0.9166181789999968  0.3417720030000027  0.4446382109999973   F   F   F
  0.9183636830000026  0.6644691010000017  0.4493654500000019   F   F   F
  0.9388230830000026  0.1677357900000018  0.3408632900000015   F   F   F
  0.9382123390000032  0.5163285860000002  0.3407312269999991   F   F   F
  0.9381025539999968  0.8177413239999964  0.3401961530000008   F   F   F
  0.9382008380000002  0.1503061780000010  0.6592302740000022   F   F   F
  0.9388014290000015  0.4989028379999993  0.6590827030000028   F   F   F
  0.9380883050000008  0.8488822839999983  0.6597688089999991   F   F   F
  0.3535772009693449  0.3393380610646361  0.5929150799182110   T   T   T
  0.3582206491829138  0.6715040720410879  0.5948167737582957   T   T   T
  0.3581793671693207 -0.0048318584847395  0.4053067837574323   T   T   T
  0.3535414422470372  0.3273183976591666  0.4072056535210409   T   T   T
  0.9645133300000026  0.1163042499999989  0.6916944250000014   F   F   F
  0.9642846719999980  0.8837216539999986  0.6923786250000035   F   F   F
  0.9642983600000008  0.7828876969999996  0.3075880379999987   F   F   F
  0.9645287009999990  0.5503624130000020  0.3082598809999979   F   F   F
  0.3822577422761143  0.6535063442179988  0.3478053449499628   T   T   T
  0.3823045413485000  0.0131462644064268  0.6523051989525726   T   T   T
  0.3857007794221718  0.1972805915363500  0.6190288768539284   T   T   T
  0.3887350384426457  0.4960146795958691  0.6203761444662524   T   T   T
  0.3932764368635030  0.8159896757166641  0.6255895819944646   T   T   T
  0.3886804958203798  0.1705588030770280  0.3797118543349291   T   T   T
  0.3856582249332127  0.4693518222095460  0.3810735235203478   T   T   T
  0.3932128565091157  0.8506471924852957  0.3745271185878007   T   T   T
  0.4707593075261199 -0.0030669192923618  0.6320448642281357   T   T   T
  0.4690231549502195  0.3301799700808163  0.6321511663223216   T   T   T
  0.4696082239130181  0.6620398992971529  0.6323364642772762   T   T   T
  0.4695689000946617  0.0046366537428941  0.3676876175285009   T   T   T
  0.4689789794211381  0.3365290114031000  0.3678755900285720   T   T   T
  0.4707180403716097  0.6697417347786508  0.3679899878782560   T   T   T
  0.5450892872679755  0.1656714664161108  0.6307051321159429   T   T   T
  0.5449223381513890  0.4980670581517773  0.6307545514810280   T   T   T
  0.5451824673295519  0.8311229787958336  0.6306737945341740   T   T   T
  0.5448838708337047  0.1686016532501213  0.3692069753365606   T   T   T
  0.5450556422624373  0.5010134764975005  0.3692468246251840   T   T   T
  0.5451578628028757  0.8355572740290755  0.3692913650575304   T   T   T
  0.6195051642049425  0.9992961831605085  0.6303277607305097   T   T   T
  0.6195352199851054  0.3326307494254781  0.6303161859791243   T   T   T
  0.6195208796206979  0.6657466589279882  0.6303163259342569   T   T   T
  0.6194930003384426  0.0009679865991805  0.3695951718653704   T   T   T
  0.6195108534650803  0.3340726251507840  0.3696016714428109   T   T   T
  0.6194858551498797  0.6673912855565860  0.3695890665811872   T   T   T
  0.6937128674508902  0.1664077497446345  0.6301003441282113   T   T   T
  0.6936572300986007  0.4996164892506241  0.6301108532793566   T   T   T
  0.6936960755867984  0.8328906134974429  0.6301203915734500   T   T   T
  0.6936408144050692  0.1670625192850961  0.3697612845214596   T   T   T
  0.6937101567732143  0.5002909844424843  0.3697805355896402   T   T   T
  0.6936830335145967  0.8338272341801705  0.3697598042418896   T   T   T
  0.7676164251535114  0.9998388890797265  0.6296147275050097   T   T   T
  0.7676953033927548  0.3339781483545964  0.6298862346544502   T   T   T
  0.7676335072228435  0.6656585714241008  0.6301144651175624   T   T   T
  0.7676326874594964  0.0010031733749524  0.3697644121694407   T   T   T
  0.7676987915707869  0.3327652668200843  0.3699834611072150   T   T   T
  0.7676340324026758  0.6667910759902644  0.3702512293500124   T   T   T
  0.8410139639999983  0.1696199120000017  0.6285724230000014   F   F   F
  0.8422840899999997  0.4996610800000028  0.6315221369999975   F   F   F
  0.8408998600000004  0.8297220070000009  0.6294451170000031   F   F   F
  0.8422910470000033  0.1669476570000015  0.3683593579999993   F   F   F
  0.8410330379999991  0.4969668680000012  0.3713167849999977   F   F   F
  0.8409131550000026  0.8369255790000025  0.3704634959999993   F   F   F
  0.9100824240000023  0.9993747039999974  0.6208688070000008   F   F   F
  0.9162541560000008  0.3517900350000005  0.6292670289999975   F   F   F
  0.9162962300000004  0.6473510849999968  0.6300453520000033   F   F   F
  0.9163113199999984  0.0193125099999989  0.3698907109999965   F   F   F
  0.9162725560000027  0.3148402369999985  0.3706645139999978   F   F   F
  0.9100983000000014  0.6672375970000033  0.3790923410000033   F   F   F
 
  0.00000000E+00  0.00000000E+00  0.00000000E+00
  0.00000000E+00  0.00000000E+00  0.00000000E+00
  0.00000000E+00  0.00000000E+00  0.00000000E+00
  0.00000000E+00  0.00000000E+00  0.00000000E+00
  0.00000000E+00  0.00000000E+00  0.00000000E+00
  0.00000000E+00  0.00000000E+00  0.00000000E+00
  0.00000000E+00  0.00000000E+00  0.00000000E+00
  0.00000000E+00  0.00000000E+00  0.00000000E+00
  0.00000000E+00  0.00000000E+00  0.00000000E+00
  0.00000000E+00  0.00000000E+00  0.00000000E+00
  0.00000000E+00  0.00000000E+00  0.00000000E+00
  0.00000000E+00  0.00000000E+00  0.00000000E+00
  0.00000000E+00  0.00000000E+00  0.00000000E+00
  0.00000000E+00  0.00000000E+00  0.00000000E+00
  0.00000000E+00  0.00000000E+00  0.00000000E+00
  0.00000000E+00  0.00000000E+00  0.00000000E+00
  0.00000000E+00  0.00000000E+00  0.00000000E+00
  0.00000000E+00  0.00000000E+00  0.00000000E+00
  0.00000000E+00  0.00000000E+00  0.00000000E+00
  0.00000000E+00  0.00000000E+00  0.00000000E+00
  0.00000000E+00  0.00000000E+00  0.00000000E+00
  0.00000000E+00  0.00000000E+00  0.00000000E+00
  0.00000000E+00  0.00000000E+00  0.00000000E+00
  0.00000000E+00  0.00000000E+00  0.00000000E+00
  0.00000000E+00  0.00000000E+00  0.00000000E+00
  0.00000000E+00  0.00000000E+00  0.00000000E+00
  0.00000000E+00  0.00000000E+00  0.00000000E+00
  0.00000000E+00  0.00000000E+00  0.00000000E+00
  0.00000000E+00  0.00000000E+00  0.00000000E+00
  0.00000000E+00  0.00000000E+00  0.00000000E+00
  0.00000000E+00  0.00000000E+00  0.00000000E+00
  0.00000000E+00  0.00000000E+00  0.00000000E+00
  0.00000000E+00  0.00000000E+00  0.00000000E+00
  0.00000000E+00  0.00000000E+00  0.00000000E+00
  0.00000000E+00  0.00000000E+00  0.00000000E+00
  0.00000000E+00  0.00000000E+00  0.00000000E+00
  0.00000000E+00  0.00000000E+00  0.00000000E+00
  0.00000000E+00  0.00000000E+00  0.00000000E+00
  0.00000000E+00  0.00000000E+00  0.00000000E+00
  0.00000000E+00  0.00000000E+00  0.00000000E+00
  0.00000000E+00  0.00000000E+00  0.00000000E+00
  0.00000000E+00  0.00000000E+00  0.00000000E+00
  0.00000000E+00  0.00000000E+00  0.00000000E+00
  0.00000000E+00  0.00000000E+00  0.00000000E+00
  0.00000000E+00  0.00000000E+00  0.00000000E+00
  0.00000000E+00  0.00000000E+00  0.00000000E+00
  0.00000000E+00  0.00000000E+00  0.00000000E+00
  0.00000000E+00  0.00000000E+00  0.00000000E+00
  0.00000000E+00  0.00000000E+00  0.00000000E+00
  0.00000000E+00  0.00000000E+00  0.00000000E+00
  0.00000000E+00  0.00000000E+00  0.00000000E+00
  0.00000000E+00  0.00000000E+00  0.00000000E+00
  0.00000000E+00  0.00000000E+00  0.00000000E+00
  0.00000000E+00  0.00000000E+00  0.00000000E+00
  0.00000000E+00  0.00000000E+00  0.00000000E+00
  0.00000000E+00  0.00000000E+00  0.00000000E+00
  0.00000000E+00  0.00000000E+00  0.00000000E+00
  0.00000000E+00  0.00000000E+00  0.00000000E+00
  0.00000000E+00  0.00000000E+00  0.00000000E+00
  0.00000000E+00  0.00000000E+00  0.00000000E+00
  0.00000000E+00  0.00000000E+00  0.00000000E+00
  0.00000000E+00  0.00000000E+00  0.00000000E+00
  0.00000000E+00  0.00000000E+00  0.00000000E+00
  0.00000000E+00  0.00000000E+00  0.00000000E+00
  0.00000000E+00  0.00000000E+00  0.00000000E+00
  0.00000000E+00  0.00000000E+00  0.00000000E+00
  0.00000000E+00  0.00000000E+00  0.00000000E+00
  0.00000000E+00  0.00000000E+00  0.00000000E+00
  0.00000000E+00  0.00000000E+00  0.00000000E+00
  0.00000000E+00  0.00000000E+00  0.00000000E+00
  0.00000000E+00  0.00000000E+00  0.00000000E+00
  0.00000000E+00  0.00000000E+00  0.00000000E+00
  0.00000000E+00  0.00000000E+00  0.00000000E+00
  0.00000000E+00  0.00000000E+00  0.00000000E+00
  0.00000000E+00  0.00000000E+00  0.00000000E+00
  0.00000000E+00  0.00000000E+00  0.00000000E+00
  0.00000000E+00  0.00000000E+00  0.00000000E+00
  0.00000000E+00  0.00000000E+00  0.00000000E+00
  0.00000000E+00  0.00000000E+00  0.00000000E+00
  0.00000000E+00  0.00000000E+00  0.00000000E+00
  0.00000000E+00  0.00000000E+00  0.00000000E+00
  0.00000000E+00  0.00000000E+00  0.00000000E+00
  0.00000000E+00  0.00000000E+00  0.00000000E+00
  0.00000000E+00  0.00000000E+00  0.00000000E+00
  0.00000000E+00  0.00000000E+00  0.00000000E+00
  0.00000000E+00  0.00000000E+00  0.00000000E+00
  0.00000000E+00  0.00000000E+00  0.00000000E+00
  0.00000000E+00  0.00000000E+00  0.00000000E+00
  0.00000000E+00  0.00000000E+00  0.00000000E+00
  0.00000000E+00  0.00000000E+00  0.00000000E+00
  0.00000000E+00  0.00000000E+00  0.00000000E+00
  0.00000000E+00  0.00000000E+00  0.00000000E+00
  0.00000000E+00  0.00000000E+00  0.00000000E+00
  0.00000000E+00  0.00000000E+00  0.00000000E+00
  0.00000000E+00  0.00000000E+00  0.00000000E+00
  0.00000000E+00  0.00000000E+00  0.00000000E+00
  0.00000000E+00  0.00000000E+00  0.00000000E+00
  0.00000000E+00  0.00000000E+00  0.00000000E+00
  0.00000000E+00  0.00000000E+00  0.00000000E+00
  0.00000000E+00  0.00000000E+00  0.00000000E+00
  0.00000000E+00  0.00000000E+00  0.00000000E+00
  0.00000000E+00  0.00000000E+00  0.00000000E+00
  0.00000000E+00  0.00000000E+00  0.00000000E+00
  0.00000000E+00  0.00000000E+00  0.00000000E+00
  0.00000000E+00  0.00000000E+00  0.00000000E+00
  0.00000000E+00  0.00000000E+00  0.00000000E+00
  0.00000000E+00  0.00000000E+00  0.00000000E+00
  0.00000000E+00  0.00000000E+00  0.00000000E+00
  0.00000000E+00  0.00000000E+00  0.00000000E+00
  0.00000000E+00  0.00000000E+00  0.00000000E+00
  0.00000000E+00  0.00000000E+00  0.00000000E+00
  0.00000000E+00  0.00000000E+00  0.00000000E+00
  0.00000000E+00  0.00000000E+00  0.00000000E+00
  0.00000000E+00  0.00000000E+00  0.00000000E+00
  0.00000000E+00  0.00000000E+00  0.00000000E+00
  0.00000000E+00  0.00000000E+00  0.00000000E+00
  0.00000000E+00  0.00000000E+00  0.00000000E+00
  0.00000000E+00  0.00000000E+00  0.00000000E+00
  0.00000000E+00  0.00000000E+00  0.00000000E+00
  0.00000000E+00  0.00000000E+00  0.00000000E+00
  0.00000000E+00  0.00000000E+00  0.00000000E+00
  0.00000000E+00  0.00000000E+00  0.00000000E+00
  0.00000000E+00  0.00000000E+00  0.00000000E+00
  0.00000000E+00  0.00000000E+00  0.00000000E+00
  0.00000000E+00  0.00000000E+00  0.00000000E+00
  0.00000000E+00  0.00000000E+00  0.00000000E+00
  0.00000000E+00  0.00000000E+00  0.00000000E+00
  0.00000000E+00  0.00000000E+00  0.00000000E+00
  0.00000000E+00  0.00000000E+00  0.00000000E+00
  0.00000000E+00  0.00000000E+00  0.00000000E+00
  0.00000000E+00  0.00000000E+00  0.00000000E+00
  0.00000000E+00  0.00000000E+00  0.00000000E+00
  0.00000000E+00  0.00000000E+00  0.00000000E+00
  0.00000000E+00  0.00000000E+00  0.00000000E+00
  0.00000000E+00  0.00000000E+00  0.00000000E+00
  0.00000000E+00  0.00000000E+00  0.00000000E+00
  0.00000000E+00  0.00000000E+00  0.00000000E+00
  0.00000000E+00  0.00000000E+00  0.00000000E+00
  0.00000000E+00  0.00000000E+00  0.00000000E+00
  0.00000000E+00  0.00000000E+00  0.00000000E+00
  0.00000000E+00  0.00000000E+00  0.00000000E+00
  0.00000000E+00  0.00000000E+00  0.00000000E+00
  0.00000000E+00  0.00000000E+00  0.00000000E+00
  0.00000000E+00  0.00000000E+00  0.00000000E+00
  0.00000000E+00  0.00000000E+00  0.00000000E+00
  0.00000000E+00  0.00000000E+00  0.00000000E+00
  0.00000000E+00  0.00000000E+00  0.00000000E+00
  0.00000000E+00  0.00000000E+00  0.00000000E+00
  0.00000000E+00  0.00000000E+00  0.00000000E+00
  0.00000000E+00  0.00000000E+00  0.00000000E+00
  0.00000000E+00  0.00000000E+00  0.00000000E+00
  0.00000000E+00  0.00000000E+00  0.00000000E+00
  0.00000000E+00  0.00000000E+00  0.00000000E+00
  0.00000000E+00  0.00000000E+00  0.00000000E+00
  0.00000000E+00  0.00000000E+00  0.00000000E+00
  0.00000000E+00  0.00000000E+00  0.00000000E+00
  0.00000000E+00  0.00000000E+00  0.00000000E+00
  0.00000000E+00  0.00000000E+00  0.00000000E+00
  0.00000000E+00  0.00000000E+00  0.00000000E+00
  0.00000000E+00  0.00000000E+00  0.00000000E+00
  0.00000000E+00  0.00000000E+00  0.00000000E+00
  0.00000000E+00  0.00000000E+00  0.00000000E+00
  0.00000000E+00  0.00000000E+00  0.00000000E+00
  0.00000000E+00  0.00000000E+00  0.00000000E+00
  0.00000000E+00  0.00000000E+00  0.00000000E+00
  0.00000000E+00  0.00000000E+00  0.00000000E+00
  0.00000000E+00  0.00000000E+00  0.00000000E+00
  0.00000000E+00  0.00000000E+00  0.00000000E+00
  0.00000000E+00  0.00000000E+00  0.00000000E+00
  0.00000000E+00  0.00000000E+00  0.00000000E+00
  0.00000000E+00  0.00000000E+00  0.00000000E+00
  0.00000000E+00  0.00000000E+00  0.00000000E+00
  0.00000000E+00  0.00000000E+00  0.00000000E+00
  0.00000000E+00  0.00000000E+00  0.00000000E+00
  0.00000000E+00  0.00000000E+00  0.00000000E+00
  0.00000000E+00  0.00000000E+00  0.00000000E+00
  0.00000000E+00  0.00000000E+00  0.00000000E+00
  0.00000000E+00  0.00000000E+00  0.00000000E+00
