CONTCAR40                               
   1.00000000000000     
    65.0000000000000000    0.0000000000000000    0.0000000000000000
     0.0000000000000000    2.9100000858000001    0.0000000000000000
     0.0000000000000000    0.0000000000000000   23.0000000000000000
   Mo   N    Si
    20    80    40
Direct
  0.0346187210622233  0.0000000000000000  0.4999182812184060
  0.0727404085692456  0.5000000000000000  0.4999205665594815
  0.1120385902340715  0.0000000000000000  0.4999202042079673
  0.1510629085184050  0.5000000000000000  0.4999187413804904
  0.1899302151712803  0.0000000000000000  0.4999155079220472
  0.2287288122090771  0.5000000000000000  0.4999168326034393
  0.2674964697762618  0.0000000000000000  0.4999119749151362
  0.3062491226899482  0.5000000000000000  0.4999106396963739
  0.3449972817878049  0.0000000000000000  0.4999140469370147
  0.3837438713232544  0.5000000000000000  0.4999184133716099
  0.4224942554941364  0.0000000000000000  0.4999238329807127
  0.4612508562912012  0.5000000000000000  0.4999386658809755
  0.5000129961585102  0.0000000000000000  0.4999514885431680
  0.5387764793847580  0.5000000000000000  0.4999578550213641
  0.5775380386018441  0.0000000000000000  0.4999487884005944
  0.6163033327389513  0.5000000000000000  0.4999349467608525
  0.6550761331317148  0.0000000000000000  0.4999570864667078
  0.6939067429755212  0.5000000000000000  0.4999959412707895
  0.7327961149995446  0.0000000000000000  0.5000306088174753
  0.7727292545377296  0.5000000000000000  0.5000331951649457
  0.0458681693401459  0.5000000000000000  0.5552972565463392
  0.0458686241929769  0.5000000000000000  0.4445396516495634
  0.0611216409859452  0.0000000000000000  0.3475883781444651
  0.0611184415084125  0.0000000000000000  0.6522535862928791
  0.0859701410328029  0.0000000000000000  0.5535598089402143
  0.0859709798348618  0.0000000000000000  0.4462856845082754
  0.0996727083590727  0.5000000000000000  0.3484766264025509
  0.0996705887386753  0.5000000000000000  0.6513648476212879
  0.1251291549418667  0.5000000000000000  0.5538331596151949
  0.1251292582594417  0.5000000000000000  0.4460103442996370
  0.1383589652738166  0.0000000000000000  0.3479969182994083
  0.1383575079102215  0.0000000000000000  0.6518456402294106
  0.1640441102107459  0.0000000000000000  0.5540553642405612
  0.1640442530595507  0.0000000000000000  0.4457851636115819
  0.1770981671089658  0.5000000000000000  0.3477754676061977
  0.1770966577602806  0.5000000000000000  0.6520612742804346
  0.2028670650171733  0.5000000000000000  0.5541149259712412
  0.2028680346325729  0.5000000000000000  0.4457170738768994
  0.2158454072248901  0.0000000000000000  0.3476947127531247
  0.2158429022539821  0.0000000000000000  0.6521343281114369
  0.2416439653514431  0.0000000000000000  0.5541440964167776
  0.2416432752711160  0.0000000000000000  0.4456931231130170
  0.2545922379280441  0.5000000000000000  0.3476653389282731
  0.2545913602977379  0.5000000000000000  0.6521666957086296
  0.2804008890799565  0.5000000000000000  0.5541529154682578
  0.2804007276191385  0.5000000000000000  0.4456749713240455
  0.2933373369651093  0.0000000000000000  0.3476344376031690
  0.2933348234172399  0.0000000000000000  0.6521904778743206
  0.3191497306857514  0.0000000000000000  0.5541567170324981
  0.3191508653007631  0.0000000000000000  0.4456682440888144
  0.3320843300994483  0.5000000000000000  0.3476318705314441
  0.3320803505033680  0.5000000000000000  0.6521929403704121
  0.3578969258963625  0.5000000000000000  0.5541556993141867
  0.3578977158156462  0.5000000000000000  0.4456711067424237
  0.3708318108641109  0.0000000000000000  0.3476432741097355
  0.3708282797068065  0.0000000000000000  0.6521860572729707
  0.3966431190755983  0.0000000000000000  0.5541541461202044
  0.3966445361221318  0.0000000000000000  0.4456818323169784
  0.4095813955998509  0.5000000000000000  0.3476662007671223
  0.4095812761450972  0.5000000000000000  0.6521752903509679
  0.4353947974005123  0.5000000000000000  0.5541599985008503
  0.4353980202372156  0.5000000000000000  0.4456952572115682
  0.4483419660353434  0.0000000000000000  0.3476814150354244
  0.4483386008305175  0.0000000000000000  0.6521798910735725
  0.4741555170393994  0.0000000000000000  0.5541742737428166
  0.4741578567392537  0.0000000000000000  0.4457176916760659
  0.4871081966511142  0.5000000000000000  0.3477120434650303
  0.4871033123532413  0.5000000000000000  0.6521931857117309
  0.5129211156736488  0.5000000000000000  0.5541835481115029
  0.5129207726141090  0.5000000000000000  0.4457278912561620
  0.5258775237256188  0.0000000000000000  0.3477211097161330
  0.5258754551463483  0.0000000000000000  0.6521989344420049
  0.5516839455678095  0.0000000000000000  0.5541855518572021
  0.5516842089840850  0.0000000000000000  0.4457298999353796
  0.5646521554950255  0.5000000000000000  0.3477232979777867
  0.5646451900125840  0.5000000000000000  0.6521867600057192
  0.5904463462892267  0.5000000000000000  0.5541548177654079
  0.5904492790711373  0.5000000000000000  0.4457331186495495
  0.6034369337758392  0.0000000000000000  0.3477450410484124
  0.6034196342906597  0.0000000000000000  0.6521392322869062
  0.6292108894182604  0.0000000000000000  0.5541046086167469
  0.6292167033287015  0.0000000000000000  0.4457670906664788
  0.6422220662204694  0.5000000000000000  0.3478462278143937
  0.6421946661152944  0.5000000000000000  0.6520449051060808
  0.6679837699774822  0.5000000000000000  0.5540250121988279
  0.6679932535001782  0.5000000000000000  0.4459227614514987
  0.6809935778619121  0.0000000000000000  0.3481567049633512
  0.6809608710111519  0.0000000000000000  0.6518105935793272
  0.7068342883885066  0.0000000000000000  0.5537475338397400
  0.7068494928403481  0.0000000000000000  0.4462826333977148
  0.7196968409044402  0.5000000000000000  0.3489134894464527
  0.7196606253018203  0.5000000000000000  0.6511337026875168
  0.7457710287312906  0.5000000000000000  0.5532036177577169
  0.7457847936944759  0.5000000000000000  0.4468786156292666
  0.7581270518621963  0.0000000000000000  0.3483545190824273
  0.7580873113985476  0.0000000000000000  0.6517298808001115
  0.7830425893105044  0.0000000000000000  0.5545663117902535
  0.7830540547528670  0.0000000000000000  0.4455185502276038
  0.7961961626618219  0.5000000000000000  0.3475860328135454
  0.7961477323440036  0.5000000000000000  0.6525215626306604
  0.0473824973185799  0.5000000000000000  0.6323017421240564
  0.0473861705738372  0.5000000000000000  0.3675349960150669
  0.0866633776170787  0.0000000000000000  0.6298804645030600
  0.0866667665069087  0.0000000000000000  0.3699617037921712
  0.1254630231909530  0.5000000000000000  0.6298849313404560
  0.1254644478682110  0.5000000000000000  0.3699544136599684
  0.1642191773101942  0.0000000000000000  0.6300439179453861
  0.1642211060853143  0.0000000000000000  0.3697925349062174
  0.2029698953762846  0.5000000000000000  0.6300935050665473
  0.2029721845474484  0.5000000000000000  0.3697305219255043
  0.2417192550100467  0.0000000000000000  0.6301242134475800
  0.2417213681284878  0.0000000000000000  0.3697098479039411
  0.2804665011062468  0.5000000000000000  0.6301360362978556
  0.2804682173960913  0.5000000000000000  0.3696850668226901
  0.3192097010028760  0.0000000000000000  0.6301438886912010
  0.3192121459234798  0.0000000000000000  0.3696779353119695
  0.3579547622986823  0.5000000000000000  0.6301417774219686
  0.3579577285798976  0.5000000000000000  0.3696903660300990
  0.3967059791572964  0.0000000000000000  0.6301397861427205
  0.3967073045695741  0.0000000000000000  0.3697045004427508
  0.4354623148184089  0.5000000000000000  0.6301393987347907
  0.4354630347272490  0.5000000000000000  0.3697115887146367
  0.4742223019628540  0.0000000000000000  0.6301590997690738
  0.4742249943396430  0.0000000000000000  0.3697330586351413
  0.5129905519782056  0.5000000000000000  0.6301732934255071
  0.5129929633435211  0.5000000000000000  0.3697423971882472
  0.5517624598868380  0.0000000000000000  0.6301817812197825
  0.5517662372162988  0.0000000000000000  0.3697398771890832
  0.5905352551951779  0.5000000000000000  0.6301628552030039
  0.5905490368354691  0.5000000000000000  0.3697278580184999
  0.6293160012443124  0.0000000000000000  0.6301409361917720
  0.6293397860353309  0.0000000000000000  0.3697282866889253
  0.6681173889763556  0.5000000000000000  0.6301322592662615
  0.6681437759164766  0.5000000000000000  0.3698084083333129
  0.7069523749607427  0.0000000000000000  0.6300817485705892
  0.7069830911377579  0.0000000000000000  0.3699471559813219
  0.7459257448929151  0.5000000000000000  0.6305280616173690
  0.7459589781743361  0.5000000000000000  0.3695482518451527
  0.7850972525119175  0.0000000000000000  0.6315602865257119
  0.7851375646751393  0.0000000000000000  0.3685307265470925
 
  0.00000000E+00  0.00000000E+00  0.00000000E+00
  0.00000000E+00  0.00000000E+00  0.00000000E+00
  0.00000000E+00  0.00000000E+00  0.00000000E+00
  0.00000000E+00  0.00000000E+00  0.00000000E+00
  0.00000000E+00  0.00000000E+00  0.00000000E+00
  0.00000000E+00  0.00000000E+00  0.00000000E+00
  0.00000000E+00  0.00000000E+00  0.00000000E+00
  0.00000000E+00  0.00000000E+00  0.00000000E+00
  0.00000000E+00  0.00000000E+00  0.00000000E+00
  0.00000000E+00  0.00000000E+00  0.00000000E+00
  0.00000000E+00  0.00000000E+00  0.00000000E+00
  0.00000000E+00  0.00000000E+00  0.00000000E+00
  0.00000000E+00  0.00000000E+00  0.00000000E+00
  0.00000000E+00  0.00000000E+00  0.00000000E+00
  0.00000000E+00  0.00000000E+00  0.00000000E+00
  0.00000000E+00  0.00000000E+00  0.00000000E+00
  0.00000000E+00  0.00000000E+00  0.00000000E+00
  0.00000000E+00  0.00000000E+00  0.00000000E+00
  0.00000000E+00  0.00000000E+00  0.00000000E+00
  0.00000000E+00  0.00000000E+00  0.00000000E+00
  0.00000000E+00  0.00000000E+00  0.00000000E+00
  0.00000000E+00  0.00000000E+00  0.00000000E+00
  0.00000000E+00  0.00000000E+00  0.00000000E+00
  0.00000000E+00  0.00000000E+00  0.00000000E+00
  0.00000000E+00  0.00000000E+00  0.00000000E+00
  0.00000000E+00  0.00000000E+00  0.00000000E+00
  0.00000000E+00  0.00000000E+00  0.00000000E+00
  0.00000000E+00  0.00000000E+00  0.00000000E+00
  0.00000000E+00  0.00000000E+00  0.00000000E+00
  0.00000000E+00  0.00000000E+00  0.00000000E+00
  0.00000000E+00  0.00000000E+00  0.00000000E+00
  0.00000000E+00  0.00000000E+00  0.00000000E+00
  0.00000000E+00  0.00000000E+00  0.00000000E+00
  0.00000000E+00  0.00000000E+00  0.00000000E+00
  0.00000000E+00  0.00000000E+00  0.00000000E+00
  0.00000000E+00  0.00000000E+00  0.00000000E+00
  0.00000000E+00  0.00000000E+00  0.00000000E+00
  0.00000000E+00  0.00000000E+00  0.00000000E+00
  0.00000000E+00  0.00000000E+00  0.00000000E+00
  0.00000000E+00  0.00000000E+00  0.00000000E+00
  0.00000000E+00  0.00000000E+00  0.00000000E+00
  0.00000000E+00  0.00000000E+00  0.00000000E+00
  0.00000000E+00  0.00000000E+00  0.00000000E+00
  0.00000000E+00  0.00000000E+00  0.00000000E+00
  0.00000000E+00  0.00000000E+00  0.00000000E+00
  0.00000000E+00  0.00000000E+00  0.00000000E+00
  0.00000000E+00  0.00000000E+00  0.00000000E+00
  0.00000000E+00  0.00000000E+00  0.00000000E+00
  0.00000000E+00  0.00000000E+00  0.00000000E+00
  0.00000000E+00  0.00000000E+00  0.00000000E+00
  0.00000000E+00  0.00000000E+00  0.00000000E+00
  0.00000000E+00  0.00000000E+00  0.00000000E+00
  0.00000000E+00  0.00000000E+00  0.00000000E+00
  0.00000000E+00  0.00000000E+00  0.00000000E+00
  0.00000000E+00  0.00000000E+00  0.00000000E+00
  0.00000000E+00  0.00000000E+00  0.00000000E+00
  0.00000000E+00  0.00000000E+00  0.00000000E+00
  0.00000000E+00  0.00000000E+00  0.00000000E+00
  0.00000000E+00  0.00000000E+00  0.00000000E+00
  0.00000000E+00  0.00000000E+00  0.00000000E+00
  0.00000000E+00  0.00000000E+00  0.00000000E+00
  0.00000000E+00  0.00000000E+00  0.00000000E+00
  0.00000000E+00  0.00000000E+00  0.00000000E+00
  0.00000000E+00  0.00000000E+00  0.00000000E+00
  0.00000000E+00  0.00000000E+00  0.00000000E+00
  0.00000000E+00  0.00000000E+00  0.00000000E+00
  0.00000000E+00  0.00000000E+00  0.00000000E+00
  0.00000000E+00  0.00000000E+00  0.00000000E+00
  0.00000000E+00  0.00000000E+00  0.00000000E+00
  0.00000000E+00  0.00000000E+00  0.00000000E+00
  0.00000000E+00  0.00000000E+00  0.00000000E+00
  0.00000000E+00  0.00000000E+00  0.00000000E+00
  0.00000000E+00  0.00000000E+00  0.00000000E+00
  0.00000000E+00  0.00000000E+00  0.00000000E+00
  0.00000000E+00  0.00000000E+00  0.00000000E+00
  0.00000000E+00  0.00000000E+00  0.00000000E+00
  0.00000000E+00  0.00000000E+00  0.00000000E+00
  0.00000000E+00  0.00000000E+00  0.00000000E+00
  0.00000000E+00  0.00000000E+00  0.00000000E+00
  0.00000000E+00  0.00000000E+00  0.00000000E+00
  0.00000000E+00  0.00000000E+00  0.00000000E+00
  0.00000000E+00  0.00000000E+00  0.00000000E+00
  0.00000000E+00  0.00000000E+00  0.00000000E+00
  0.00000000E+00  0.00000000E+00  0.00000000E+00
  0.00000000E+00  0.00000000E+00  0.00000000E+00
  0.00000000E+00  0.00000000E+00  0.00000000E+00
  0.00000000E+00  0.00000000E+00  0.00000000E+00
  0.00000000E+00  0.00000000E+00  0.00000000E+00
  0.00000000E+00  0.00000000E+00  0.00000000E+00
  0.00000000E+00  0.00000000E+00  0.00000000E+00
  0.00000000E+00  0.00000000E+00  0.00000000E+00
  0.00000000E+00  0.00000000E+00  0.00000000E+00
  0.00000000E+00  0.00000000E+00  0.00000000E+00
  0.00000000E+00  0.00000000E+00  0.00000000E+00
  0.00000000E+00  0.00000000E+00  0.00000000E+00
  0.00000000E+00  0.00000000E+00  0.00000000E+00
  0.00000000E+00  0.00000000E+00  0.00000000E+00
  0.00000000E+00  0.00000000E+00  0.00000000E+00
  0.00000000E+00  0.00000000E+00  0.00000000E+00
  0.00000000E+00  0.00000000E+00  0.00000000E+00
  0.00000000E+00  0.00000000E+00  0.00000000E+00
  0.00000000E+00  0.00000000E+00  0.00000000E+00
  0.00000000E+00  0.00000000E+00  0.00000000E+00
  0.00000000E+00  0.00000000E+00  0.00000000E+00
  0.00000000E+00  0.00000000E+00  0.00000000E+00
  0.00000000E+00  0.00000000E+00  0.00000000E+00
  0.00000000E+00  0.00000000E+00  0.00000000E+00
  0.00000000E+00  0.00000000E+00  0.00000000E+00
  0.00000000E+00  0.00000000E+00  0.00000000E+00
  0.00000000E+00  0.00000000E+00  0.00000000E+00
  0.00000000E+00  0.00000000E+00  0.00000000E+00
  0.00000000E+00  0.00000000E+00  0.00000000E+00
  0.00000000E+00  0.00000000E+00  0.00000000E+00
  0.00000000E+00  0.00000000E+00  0.00000000E+00
  0.00000000E+00  0.00000000E+00  0.00000000E+00
  0.00000000E+00  0.00000000E+00  0.00000000E+00
  0.00000000E+00  0.00000000E+00  0.00000000E+00
  0.00000000E+00  0.00000000E+00  0.00000000E+00
  0.00000000E+00  0.00000000E+00  0.00000000E+00
  0.00000000E+00  0.00000000E+00  0.00000000E+00
  0.00000000E+00  0.00000000E+00  0.00000000E+00
  0.00000000E+00  0.00000000E+00  0.00000000E+00
  0.00000000E+00  0.00000000E+00  0.00000000E+00
  0.00000000E+00  0.00000000E+00  0.00000000E+00
  0.00000000E+00  0.00000000E+00  0.00000000E+00
  0.00000000E+00  0.00000000E+00  0.00000000E+00
  0.00000000E+00  0.00000000E+00  0.00000000E+00
  0.00000000E+00  0.00000000E+00  0.00000000E+00
  0.00000000E+00  0.00000000E+00  0.00000000E+00
  0.00000000E+00  0.00000000E+00  0.00000000E+00
  0.00000000E+00  0.00000000E+00  0.00000000E+00
  0.00000000E+00  0.00000000E+00  0.00000000E+00
  0.00000000E+00  0.00000000E+00  0.00000000E+00
  0.00000000E+00  0.00000000E+00  0.00000000E+00
  0.00000000E+00  0.00000000E+00  0.00000000E+00
  0.00000000E+00  0.00000000E+00  0.00000000E+00
  0.00000000E+00  0.00000000E+00  0.00000000E+00
  0.00000000E+00  0.00000000E+00  0.00000000E+00
  0.00000000E+00  0.00000000E+00  0.00000000E+00
  0.00000000E+00  0.00000000E+00  0.00000000E+00
