Automatic generation
0
M
1  17  1 
0  0   0

