CONTCAR40                               
   1.00000000000000     
    65.0000000000000000    0.0000000000000000    0.0000000000000000
     0.0000000000000000    2.9100000858000001    0.0000000000000000
     0.0000000000000000    0.0000000000000000   23.0000000000000000
   Mo   N    Si
    20    80    40
Direct
  0.0346187210622265  0.0000000000000000  0.4999182812184081
  0.0727404085692431  0.5000000000000000  0.4999205665594815
  0.1120385902340695  0.0000000000000000  0.4999202042079658
  0.1510629085184071  0.5000000000000000  0.4999187413804932
  0.1899302151712807  0.0000000000000000  0.4999155079220468
  0.2287288122090797  0.5000000000000000  0.4999168326034366
  0.2674964697762634  0.0000000000000000  0.4999119749151343
  0.3062491226899487  0.5000000000000000  0.4999106396963739
  0.3449972817878078  0.0000000000000000  0.4999140469370121
  0.3837438713232563  0.5000000000000000  0.4999184133716067
  0.4224942554941336  0.0000000000000000  0.4999238329807126
  0.4612508562912026  0.5000000000000000  0.4999386658809766
  0.5000129961585099  0.0000000000000000  0.4999514885431651
  0.5387764793847566  0.5000000000000000  0.4999578550213621
  0.5775380386018437  0.0000000000000000  0.4999487884005919
  0.6163033327389537  0.5000000000000000  0.4999349467608508
  0.6550761331317168  0.0000000000000000  0.4999570864667109
  0.6939067429755194  0.5000000000000000  0.4999959412707886
  0.7327961149995460  0.0000000000000000  0.5000306088174737
  0.7727292545377280  0.5000000000000000  0.5000331951649484
  0.0458681693401489  0.5000000000000000  0.5552972565463419
  0.0458686241929803  0.5000000000000000  0.4445396516495621
  0.0611216409859478  0.0000000000000000  0.3475883781444639
  0.0611184415084143  0.0000000000000000  0.6522535862928800
  0.0859701410327997  0.0000000000000000  0.5535598089402112
  0.0859709798348647  0.0000000000000000  0.4462856845082767
  0.0996727083590739  0.5000000000000000  0.3484766264025489
  0.0996705887386781  0.5000000000000000  0.6513648476212851
  0.1251291549418687  0.5000000000000000  0.5538331596151969
  0.1251292582594421  0.5000000000000000  0.4460103442996382
  0.1383589652738154  0.0000000000000000  0.3479969182994065
  0.1383575079102182  0.0000000000000000  0.6518456402294116
  0.1640441102107482  0.0000000000000000  0.5540553642405602
  0.1640442530595501  0.0000000000000000  0.4457851636115839
  0.1770981671089631  0.5000000000000000  0.3477754676062011
  0.1770966577602810  0.5000000000000000  0.6520612742804316
  0.2028670650171764  0.5000000000000000  0.5541149259712426
  0.2028680346325751  0.5000000000000000  0.4457170738769026
  0.2158454072248897  0.0000000000000000  0.3476947127531247
  0.2158429022539831  0.0000000000000000  0.6521343281114372
  0.2416439653514412  0.0000000000000000  0.5541440964167752
  0.2416432752711138  0.0000000000000000  0.4456931231130153
  0.2545922379280434  0.5000000000000000  0.3476653389282761
  0.2545913602977406  0.5000000000000000  0.6521666957086325
  0.2804008890799593  0.5000000000000000  0.5541529154682607
  0.2804007276191371  0.5000000000000000  0.4456749713240473
  0.2933373369651104  0.0000000000000000  0.3476344376031710
  0.2933348234172405  0.0000000000000000  0.6521904778743192
  0.3191497306857479  0.0000000000000000  0.5541567170324992
  0.3191508653007663  0.0000000000000000  0.4456682440888124
  0.3320843300994504  0.5000000000000000  0.3476318705314422
  0.3320803505033697  0.5000000000000000  0.6521929403704142
  0.3578969258963600  0.5000000000000000  0.5541556993141861
  0.3578977158156484  0.5000000000000000  0.4456711067424263
  0.3708318108641088  0.0000000000000000  0.3476432741097342
  0.3708282797068074  0.0000000000000000  0.6521860572729721
  0.3966431190755958  0.0000000000000000  0.5541541461202035
  0.3966445361221298  0.0000000000000000  0.4456818323169808
  0.4095813955998536  0.5000000000000000  0.3476662007671251
  0.4095812761450974  0.5000000000000000  0.6521752903509644
  0.4353947974005138  0.5000000000000000  0.5541599985008503
  0.4353980202372191  0.5000000000000000  0.4456952572115683
  0.4483419660353442  0.0000000000000000  0.3476814150354233
  0.4483386008305164  0.0000000000000000  0.6521798910735699
  0.4741555170394008  0.0000000000000000  0.5541742737428131
  0.4741578567392570  0.0000000000000000  0.4457176916760661
  0.4871081966511135  0.5000000000000000  0.3477120434650319
  0.4871033123532395  0.5000000000000000  0.6521931857117285
  0.5129211156736521  0.5000000000000000  0.5541835481115026
  0.5129207726141093  0.5000000000000000  0.4457278912561589
  0.5258775237256208  0.0000000000000000  0.3477211097161302
  0.5258754551463477  0.0000000000000000  0.6521989344420063
  0.5516839455678096  0.0000000000000000  0.5541855518572024
  0.5516842089840843  0.0000000000000000  0.4457298999353805
  0.5646521554950289  0.5000000000000000  0.3477232979777888
  0.5646451900125854  0.5000000000000000  0.6521867600057225
  0.5904463462892280  0.5000000000000000  0.5541548177654094
  0.5904492790711371  0.5000000000000000  0.4457331186495487
  0.6034369337758397  0.0000000000000000  0.3477450410484134
  0.6034196342906628  0.0000000000000000  0.6521392322869048
  0.6292108894182636  0.0000000000000000  0.5541046086167465
  0.6292167033286997  0.0000000000000000  0.4457670906664754
  0.6422220662204713  0.5000000000000000  0.3478462278143959
  0.6421946661152923  0.5000000000000000  0.6520449051060835
  0.6679837699774847  0.5000000000000000  0.5540250121988286
  0.6679932535001781  0.5000000000000000  0.4459227614515014
  0.6809935778619147  0.0000000000000000  0.3481567049633517
  0.6809608710111524  0.0000000000000000  0.6518105935793268
  0.7068342883885071  0.0000000000000000  0.5537475338397427
  0.7068494928403515  0.0000000000000000  0.4462826333977161
  0.7196968409044436  0.5000000000000000  0.3489134894464494
  0.7196606253018218  0.5000000000000000  0.6511337026875172
  0.7457710287312938  0.5000000000000000  0.5532036177577135
  0.7457847936944761  0.5000000000000000  0.4468786156292667
  0.7581270518621983  0.0000000000000000  0.3483545190824240
  0.7580873113985444  0.0000000000000000  0.6517298808001130
  0.7830425893105037  0.0000000000000000  0.5545663117902533
  0.7830540547528674  0.0000000000000000  0.4455185502276073
  0.7961961626618238  0.5000000000000000  0.3475860328135440
  0.7961477323440009  0.5000000000000000  0.6525215626306617
  0.0473824973185833  0.5000000000000000  0.6323017421240538
  0.0473861705738346  0.5000000000000000  0.3675349960150671
  0.0866633776170786  0.0000000000000000  0.6298804645030622
  0.0866667665069097  0.0000000000000000  0.3699617037921693
  0.1254630231909526  0.5000000000000000  0.6298849313404549
  0.1254644478682100  0.5000000000000000  0.3699544136599707
  0.1642191773101971  0.0000000000000000  0.6300439179453843
  0.1642211060853178  0.0000000000000000  0.3697925349062163
  0.2029698953762867  0.5000000000000000  0.6300935050665492
  0.2029721845474494  0.5000000000000000  0.3697305219255022
  0.2417192550100434  0.0000000000000000  0.6301242134475825
  0.2417213681284877  0.0000000000000000  0.3697098479039414
  0.2804665011062475  0.5000000000000000  0.6301360362978523
  0.2804682173960888  0.5000000000000000  0.3696850668226896
  0.3192097010028786  0.0000000000000000  0.6301438886912015
  0.3192121459234785  0.0000000000000000  0.3696779353119692
  0.3579547622986848  0.5000000000000000  0.6301417774219686
  0.3579577285798967  0.5000000000000000  0.3696903660300992
  0.3967059791572985  0.0000000000000000  0.6301397861427180
  0.3967073045695758  0.0000000000000000  0.3697045004427483
  0.4354623148184067  0.5000000000000000  0.6301393987347935
  0.4354630347272513  0.5000000000000000  0.3697115887146386
  0.4742223019628510  0.0000000000000000  0.6301590997690770
  0.4742249943396419  0.0000000000000000  0.3697330586351441
  0.5129905519782059  0.5000000000000000  0.6301732934255075
  0.5129929633435200  0.5000000000000000  0.3697423971882501
  0.5517624598868348  0.0000000000000000  0.6301817812197802
  0.5517662372163017  0.0000000000000000  0.3697398771890839
  0.5905352551951808  0.5000000000000000  0.6301628552030009
  0.5905490368354683  0.5000000000000000  0.3697278580185003
  0.6293160012443141  0.0000000000000000  0.6301409361917737
  0.6293397860353306  0.0000000000000000  0.3697282866889285
  0.6681173889763548  0.5000000000000000  0.6301322592662628
  0.6681437759164779  0.5000000000000000  0.3698084083333160
  0.7069523749607409  0.0000000000000000  0.6300817485705906
  0.7069830911377573  0.0000000000000000  0.3699471559813186
  0.7459257448929119  0.5000000000000000  0.6305280616173673
  0.7459589781743353  0.5000000000000000  0.3695482518451548
  0.7850972525119190  0.0000000000000000  0.6315602865257118
  0.7851375646751385  0.0000000000000000  0.3685307265470932
 
  0.00000000E+00  0.00000000E+00  0.00000000E+00
  0.00000000E+00  0.00000000E+00  0.00000000E+00
  0.00000000E+00  0.00000000E+00  0.00000000E+00
  0.00000000E+00  0.00000000E+00  0.00000000E+00
  0.00000000E+00  0.00000000E+00  0.00000000E+00
  0.00000000E+00  0.00000000E+00  0.00000000E+00
  0.00000000E+00  0.00000000E+00  0.00000000E+00
  0.00000000E+00  0.00000000E+00  0.00000000E+00
  0.00000000E+00  0.00000000E+00  0.00000000E+00
  0.00000000E+00  0.00000000E+00  0.00000000E+00
  0.00000000E+00  0.00000000E+00  0.00000000E+00
  0.00000000E+00  0.00000000E+00  0.00000000E+00
  0.00000000E+00  0.00000000E+00  0.00000000E+00
  0.00000000E+00  0.00000000E+00  0.00000000E+00
  0.00000000E+00  0.00000000E+00  0.00000000E+00
  0.00000000E+00  0.00000000E+00  0.00000000E+00
  0.00000000E+00  0.00000000E+00  0.00000000E+00
  0.00000000E+00  0.00000000E+00  0.00000000E+00
  0.00000000E+00  0.00000000E+00  0.00000000E+00
  0.00000000E+00  0.00000000E+00  0.00000000E+00
  0.00000000E+00  0.00000000E+00  0.00000000E+00
  0.00000000E+00  0.00000000E+00  0.00000000E+00
  0.00000000E+00  0.00000000E+00  0.00000000E+00
  0.00000000E+00  0.00000000E+00  0.00000000E+00
  0.00000000E+00  0.00000000E+00  0.00000000E+00
  0.00000000E+00  0.00000000E+00  0.00000000E+00
  0.00000000E+00  0.00000000E+00  0.00000000E+00
  0.00000000E+00  0.00000000E+00  0.00000000E+00
  0.00000000E+00  0.00000000E+00  0.00000000E+00
  0.00000000E+00  0.00000000E+00  0.00000000E+00
  0.00000000E+00  0.00000000E+00  0.00000000E+00
  0.00000000E+00  0.00000000E+00  0.00000000E+00
  0.00000000E+00  0.00000000E+00  0.00000000E+00
  0.00000000E+00  0.00000000E+00  0.00000000E+00
  0.00000000E+00  0.00000000E+00  0.00000000E+00
  0.00000000E+00  0.00000000E+00  0.00000000E+00
  0.00000000E+00  0.00000000E+00  0.00000000E+00
  0.00000000E+00  0.00000000E+00  0.00000000E+00
  0.00000000E+00  0.00000000E+00  0.00000000E+00
  0.00000000E+00  0.00000000E+00  0.00000000E+00
  0.00000000E+00  0.00000000E+00  0.00000000E+00
  0.00000000E+00  0.00000000E+00  0.00000000E+00
  0.00000000E+00  0.00000000E+00  0.00000000E+00
  0.00000000E+00  0.00000000E+00  0.00000000E+00
  0.00000000E+00  0.00000000E+00  0.00000000E+00
  0.00000000E+00  0.00000000E+00  0.00000000E+00
  0.00000000E+00  0.00000000E+00  0.00000000E+00
  0.00000000E+00  0.00000000E+00  0.00000000E+00
  0.00000000E+00  0.00000000E+00  0.00000000E+00
  0.00000000E+00  0.00000000E+00  0.00000000E+00
  0.00000000E+00  0.00000000E+00  0.00000000E+00
  0.00000000E+00  0.00000000E+00  0.00000000E+00
  0.00000000E+00  0.00000000E+00  0.00000000E+00
  0.00000000E+00  0.00000000E+00  0.00000000E+00
  0.00000000E+00  0.00000000E+00  0.00000000E+00
  0.00000000E+00  0.00000000E+00  0.00000000E+00
  0.00000000E+00  0.00000000E+00  0.00000000E+00
  0.00000000E+00  0.00000000E+00  0.00000000E+00
  0.00000000E+00  0.00000000E+00  0.00000000E+00
  0.00000000E+00  0.00000000E+00  0.00000000E+00
  0.00000000E+00  0.00000000E+00  0.00000000E+00
  0.00000000E+00  0.00000000E+00  0.00000000E+00
  0.00000000E+00  0.00000000E+00  0.00000000E+00
  0.00000000E+00  0.00000000E+00  0.00000000E+00
  0.00000000E+00  0.00000000E+00  0.00000000E+00
  0.00000000E+00  0.00000000E+00  0.00000000E+00
  0.00000000E+00  0.00000000E+00  0.00000000E+00
  0.00000000E+00  0.00000000E+00  0.00000000E+00
  0.00000000E+00  0.00000000E+00  0.00000000E+00
  0.00000000E+00  0.00000000E+00  0.00000000E+00
  0.00000000E+00  0.00000000E+00  0.00000000E+00
  0.00000000E+00  0.00000000E+00  0.00000000E+00
  0.00000000E+00  0.00000000E+00  0.00000000E+00
  0.00000000E+00  0.00000000E+00  0.00000000E+00
  0.00000000E+00  0.00000000E+00  0.00000000E+00
  0.00000000E+00  0.00000000E+00  0.00000000E+00
  0.00000000E+00  0.00000000E+00  0.00000000E+00
  0.00000000E+00  0.00000000E+00  0.00000000E+00
  0.00000000E+00  0.00000000E+00  0.00000000E+00
  0.00000000E+00  0.00000000E+00  0.00000000E+00
  0.00000000E+00  0.00000000E+00  0.00000000E+00
  0.00000000E+00  0.00000000E+00  0.00000000E+00
  0.00000000E+00  0.00000000E+00  0.00000000E+00
  0.00000000E+00  0.00000000E+00  0.00000000E+00
  0.00000000E+00  0.00000000E+00  0.00000000E+00
  0.00000000E+00  0.00000000E+00  0.00000000E+00
  0.00000000E+00  0.00000000E+00  0.00000000E+00
  0.00000000E+00  0.00000000E+00  0.00000000E+00
  0.00000000E+00  0.00000000E+00  0.00000000E+00
  0.00000000E+00  0.00000000E+00  0.00000000E+00
  0.00000000E+00  0.00000000E+00  0.00000000E+00
  0.00000000E+00  0.00000000E+00  0.00000000E+00
  0.00000000E+00  0.00000000E+00  0.00000000E+00
  0.00000000E+00  0.00000000E+00  0.00000000E+00
  0.00000000E+00  0.00000000E+00  0.00000000E+00
  0.00000000E+00  0.00000000E+00  0.00000000E+00
  0.00000000E+00  0.00000000E+00  0.00000000E+00
  0.00000000E+00  0.00000000E+00  0.00000000E+00
  0.00000000E+00  0.00000000E+00  0.00000000E+00
  0.00000000E+00  0.00000000E+00  0.00000000E+00
  0.00000000E+00  0.00000000E+00  0.00000000E+00
  0.00000000E+00  0.00000000E+00  0.00000000E+00
  0.00000000E+00  0.00000000E+00  0.00000000E+00
  0.00000000E+00  0.00000000E+00  0.00000000E+00
  0.00000000E+00  0.00000000E+00  0.00000000E+00
  0.00000000E+00  0.00000000E+00  0.00000000E+00
  0.00000000E+00  0.00000000E+00  0.00000000E+00
  0.00000000E+00  0.00000000E+00  0.00000000E+00
  0.00000000E+00  0.00000000E+00  0.00000000E+00
  0.00000000E+00  0.00000000E+00  0.00000000E+00
  0.00000000E+00  0.00000000E+00  0.00000000E+00
  0.00000000E+00  0.00000000E+00  0.00000000E+00
  0.00000000E+00  0.00000000E+00  0.00000000E+00
  0.00000000E+00  0.00000000E+00  0.00000000E+00
  0.00000000E+00  0.00000000E+00  0.00000000E+00
  0.00000000E+00  0.00000000E+00  0.00000000E+00
  0.00000000E+00  0.00000000E+00  0.00000000E+00
  0.00000000E+00  0.00000000E+00  0.00000000E+00
  0.00000000E+00  0.00000000E+00  0.00000000E+00
  0.00000000E+00  0.00000000E+00  0.00000000E+00
  0.00000000E+00  0.00000000E+00  0.00000000E+00
  0.00000000E+00  0.00000000E+00  0.00000000E+00
  0.00000000E+00  0.00000000E+00  0.00000000E+00
  0.00000000E+00  0.00000000E+00  0.00000000E+00
  0.00000000E+00  0.00000000E+00  0.00000000E+00
  0.00000000E+00  0.00000000E+00  0.00000000E+00
  0.00000000E+00  0.00000000E+00  0.00000000E+00
  0.00000000E+00  0.00000000E+00  0.00000000E+00
  0.00000000E+00  0.00000000E+00  0.00000000E+00
  0.00000000E+00  0.00000000E+00  0.00000000E+00
  0.00000000E+00  0.00000000E+00  0.00000000E+00
  0.00000000E+00  0.00000000E+00  0.00000000E+00
  0.00000000E+00  0.00000000E+00  0.00000000E+00
  0.00000000E+00  0.00000000E+00  0.00000000E+00
  0.00000000E+00  0.00000000E+00  0.00000000E+00
  0.00000000E+00  0.00000000E+00  0.00000000E+00
  0.00000000E+00  0.00000000E+00  0.00000000E+00
  0.00000000E+00  0.00000000E+00  0.00000000E+00
  0.00000000E+00  0.00000000E+00  0.00000000E+00
  0.00000000E+00  0.00000000E+00  0.00000000E+00
