CONTCAR1                                
   1.00000000000000     
     5.0399999619000004    0.0000000000000000    0.0000000000000000
     0.0000000000000000   25.0000000000000000    0.0000000000000000
     0.0000000000000000    0.0000000000000000   23.0000000000000000
   Mo   N    Si
     8    32    16
Direct
  0.9610500991155367  0.4523337578703142  0.4999456025040546
  0.0017609085458849  0.5636478208438852  0.4999462735845092
  0.4884223334334705  0.5016863853070715  0.4999451566517665
  0.9942161112391339  0.6802243654945543  0.4999470099406972
  0.4942194145188536  0.6223629020870529  0.4999476406510265
  0.9884075822242328  0.8008960604181330  0.4999440464669666
  0.5017464233151793  0.7389417549041044  0.4999453904386054
  0.4610199771882564  0.8502539175613293  0.4999462882961931
  0.1646002946712852  0.5041282334589190  0.5545366540523684
  0.1645978532421055  0.5041299060103818  0.4453546271218142
  0.3204053908974503  0.4466377044323249  0.3442475129674774
  0.3204055398565582  0.4466362606709116  0.6556441778755577
  0.6951297870242471  0.4426948687932876  0.5583303408310176
  0.6951247920968590  0.4426953812125062  0.4415614318818154
  0.1597865228761121  0.6221019926620384  0.5543326917504636
  0.1597891283175592  0.6221027180059977  0.4455637918103066
  0.3238798056078137  0.5638206644518595  0.3483525787734175
  0.3238924421752705  0.5638182083505066  0.6515392571234569
  0.6583409834772018  0.5625666460990542  0.5530959473351845
  0.6583420893051568  0.5625673860382298  0.4467943628092491
  0.1583255799460340  0.7400189930018739  0.5530989327311283
  0.1583277952402078  0.7400200643759002  0.4467911562374123
  0.3245810149869095  0.6800996952350283  0.3481462153937950
  0.3245723119888262  0.6800982420090222  0.6517515555271144
  0.6597808797093214  0.6804909910490615  0.5543312086328259
  0.6597874362328956  0.6804896844017868  0.4455657130983094
  0.1951159584627735  0.8598912248952999  0.5583308515884096
  0.1951081311719340  0.8598934055756504  0.4415618434686412
  0.3263497711433071  0.7958411179838466  0.3467045573627698
  0.3263516857128681  0.7958374312796016  0.6531804647976331
  0.6645935375242361  0.7984596991385975  0.5545339486149421
  0.6645933922049144  0.7984602934237770  0.4453531729608932
  0.8263986249998825  0.5067631201791604  0.3467051697291867
  0.8264021217101584  0.5067629051502355  0.6531834728814417
  0.8245774562319802  0.6225137012075981  0.3481491807559869
  0.8245731270758341  0.6225142216100317  0.6517449390923271
  0.8238509149345689  0.7387912938700318  0.3483435516595749
  0.8238561242995613  0.7387942685134573  0.6515482651744658
  0.8203603224855064  0.8559689242106915  0.3442511515626395
  0.8203478326692755  0.8559699940746908  0.6556348714531347
  0.1584700877112840  0.5020164997952451  0.6329062677333509
  0.1584699247158146  0.5020162930728891  0.3669866367447398
  0.6160124003510515  0.4562436841748491  0.6280255968317381
  0.6160252212119541  0.4562444870260231  0.3718661909219110
  0.1567601065179696  0.6215574731390761  0.6306234179229105
  0.1567597633065314  0.6215600542746597  0.3692742508552483
  0.6548291688242643  0.5647407218780618  0.6302454189084096
  0.6548109202215561  0.5647393618799433  0.3696425303200814
  0.1547538347948643  0.7378575365433133  0.6302489054532983
  0.1547565715940369  0.7378626777191948  0.3696393963586062
  0.6567582596219973  0.6810648399486684  0.6306189480600511
  0.6567613817586450  0.6810609529296802  0.3692797655938916
  0.1159879783661144  0.8463614760089999  0.6280272390834247
  0.1159939478605181  0.8463667332767516  0.3718632086570707
  0.6584081927096105  0.8005911939495465  0.6328960954657773
  0.6584116625747259  0.8005903965252888  0.3669851495008851
 
  0.00000000E+00  0.00000000E+00  0.00000000E+00
  0.00000000E+00  0.00000000E+00  0.00000000E+00
  0.00000000E+00  0.00000000E+00  0.00000000E+00
  0.00000000E+00  0.00000000E+00  0.00000000E+00
  0.00000000E+00  0.00000000E+00  0.00000000E+00
  0.00000000E+00  0.00000000E+00  0.00000000E+00
  0.00000000E+00  0.00000000E+00  0.00000000E+00
  0.00000000E+00  0.00000000E+00  0.00000000E+00
  0.00000000E+00  0.00000000E+00  0.00000000E+00
  0.00000000E+00  0.00000000E+00  0.00000000E+00
  0.00000000E+00  0.00000000E+00  0.00000000E+00
  0.00000000E+00  0.00000000E+00  0.00000000E+00
  0.00000000E+00  0.00000000E+00  0.00000000E+00
  0.00000000E+00  0.00000000E+00  0.00000000E+00
  0.00000000E+00  0.00000000E+00  0.00000000E+00
  0.00000000E+00  0.00000000E+00  0.00000000E+00
  0.00000000E+00  0.00000000E+00  0.00000000E+00
  0.00000000E+00  0.00000000E+00  0.00000000E+00
  0.00000000E+00  0.00000000E+00  0.00000000E+00
  0.00000000E+00  0.00000000E+00  0.00000000E+00
  0.00000000E+00  0.00000000E+00  0.00000000E+00
  0.00000000E+00  0.00000000E+00  0.00000000E+00
  0.00000000E+00  0.00000000E+00  0.00000000E+00
  0.00000000E+00  0.00000000E+00  0.00000000E+00
  0.00000000E+00  0.00000000E+00  0.00000000E+00
  0.00000000E+00  0.00000000E+00  0.00000000E+00
  0.00000000E+00  0.00000000E+00  0.00000000E+00
  0.00000000E+00  0.00000000E+00  0.00000000E+00
  0.00000000E+00  0.00000000E+00  0.00000000E+00
  0.00000000E+00  0.00000000E+00  0.00000000E+00
  0.00000000E+00  0.00000000E+00  0.00000000E+00
  0.00000000E+00  0.00000000E+00  0.00000000E+00
  0.00000000E+00  0.00000000E+00  0.00000000E+00
  0.00000000E+00  0.00000000E+00  0.00000000E+00
  0.00000000E+00  0.00000000E+00  0.00000000E+00
  0.00000000E+00  0.00000000E+00  0.00000000E+00
  0.00000000E+00  0.00000000E+00  0.00000000E+00
  0.00000000E+00  0.00000000E+00  0.00000000E+00
  0.00000000E+00  0.00000000E+00  0.00000000E+00
  0.00000000E+00  0.00000000E+00  0.00000000E+00
  0.00000000E+00  0.00000000E+00  0.00000000E+00
  0.00000000E+00  0.00000000E+00  0.00000000E+00
  0.00000000E+00  0.00000000E+00  0.00000000E+00
  0.00000000E+00  0.00000000E+00  0.00000000E+00
  0.00000000E+00  0.00000000E+00  0.00000000E+00
  0.00000000E+00  0.00000000E+00  0.00000000E+00
  0.00000000E+00  0.00000000E+00  0.00000000E+00
  0.00000000E+00  0.00000000E+00  0.00000000E+00
  0.00000000E+00  0.00000000E+00  0.00000000E+00
  0.00000000E+00  0.00000000E+00  0.00000000E+00
  0.00000000E+00  0.00000000E+00  0.00000000E+00
  0.00000000E+00  0.00000000E+00  0.00000000E+00
  0.00000000E+00  0.00000000E+00  0.00000000E+00
  0.00000000E+00  0.00000000E+00  0.00000000E+00
  0.00000000E+00  0.00000000E+00  0.00000000E+00
  0.00000000E+00  0.00000000E+00  0.00000000E+00
