CONTCAR1                                
   1.00000000000000     
    34.0000000000000000    0.0000000000000000    0.0000000000000000
     0.0000000000000000    2.9100000858000001    0.0000000000000000
     0.0000000000000000    0.0000000000000000   23.0000000000000000
   Mo   N    Si
     8    32    16
Direct
  0.3714948071993658  0.0000000000000000  0.4999531985588418
  0.4444264899128474  0.5000000000000000  0.4999432823591650
  0.5195680500382232  0.0000000000000000  0.4999378719532369
  0.5942050545937778  0.5000000000000000  0.4999396282232764
  0.6685525672099711  0.0000000000000000  0.4999469934511252
  0.7428701635408279  0.5000000000000000  0.4999522151984138
  0.8173252767038612  0.0000000000000000  0.4999464278772714
  0.8939462268995709  0.5000000000000000  0.4999501510194514
  0.3927438435456933  0.5000000000000000  0.5553931781093060
  0.3927388718275812  0.5000000000000000  0.4445086678724202
  0.4222707619597649  0.0000000000000000  0.3477465673248458
  0.4222758611012317  0.0000000000000000  0.6521512008830697
  0.4696791034449819  0.0000000000000000  0.5535470542915868
  0.4696765046253186  0.0000000000000000  0.4463287560431964
  0.4959657017940664  0.5000000000000000  0.3485716015703829
  0.4959676992236082  0.5000000000000000  0.6512986117397749
  0.5445481030076691  0.5000000000000000  0.5538008591343800
  0.5445472999963165  0.5000000000000000  0.4460585550022088
  0.5699486317309678  0.0000000000000000  0.3480917637554711
  0.5699484435791233  0.0000000000000000  0.6517743038801297
  0.6189696485422281  0.0000000000000000  0.5540165424145075
  0.6189727577337547  0.0000000000000000  0.4458521499309229
  0.6440470765609675  0.5000000000000000  0.3479289033744449
  0.6440455894766479  0.5000000000000000  0.6519552309467361
  0.6932339847132881  0.5000000000000000  0.5540082052672379
  0.6932345397766181  0.5000000000000000  0.4458815202490684
  0.7181211488566963  0.0000000000000000  0.3481075223366931
  0.7181203204511838  0.0000000000000000  0.6517922816096970
  0.7675736451008621  0.0000000000000000  0.5537034739387225
  0.7675733360785622  0.0000000000000000  0.4461938537823222
  0.7920287856701478  0.5000000000000000  0.3487752967481873
  0.7920281211099965  0.5000000000000000  0.6511229050136331
  0.8421018664772223  0.5000000000000000  0.5531465041899307
  0.8421049165594842  0.5000000000000000  0.4467408647818874
  0.8653403820636383  0.0000000000000000  0.3479290298865450
  0.8653345260923923  0.0000000000000000  0.6519623826918316
  0.9135973694084044  0.0000000000000000  0.5543861307946786
  0.9135989415232382  0.0000000000000000  0.4455156903878773
  0.9379648904605677  0.5000000000000000  0.3473014928358531
  0.9379579342239192  0.5000000000000000  0.6526021666387464
  0.3960618009502588  0.5000000000000000  0.6324273220437023
  0.3960539514318016  0.5000000000000000  0.3674744029357263
  0.4712432956370127  0.0000000000000000  0.6299119191971309
  0.4712390587409042  0.0000000000000000  0.3699658502486903
  0.5454509961523852  0.5000000000000000  0.6298888285659711
  0.5454509803496324  0.5000000000000000  0.3699752243499300
  0.6196022543234867  0.0000000000000000  0.6300502116171400
  0.6196014310708057  0.0000000000000000  0.3698272013486900
  0.6937445819815263  0.5000000000000000  0.6300752555667897
  0.6937448801837679  0.5000000000000000  0.3698253478015294
  0.7679183609731987  0.0000000000000000  0.6299881023171315
  0.7679192492919493  0.0000000000000000  0.3699151250749710
  0.8423032028467624  0.5000000000000000  0.6304818760916012
  0.8423075345923505  0.5000000000000000  0.3694043522339279
  0.9168467863520631  0.0000000000000000  0.6311873032853289
  0.9168526273074776  0.0000000000000000  0.3687188892546308
 
  0.00000000E+00  0.00000000E+00  0.00000000E+00
  0.00000000E+00  0.00000000E+00  0.00000000E+00
  0.00000000E+00  0.00000000E+00  0.00000000E+00
  0.00000000E+00  0.00000000E+00  0.00000000E+00
  0.00000000E+00  0.00000000E+00  0.00000000E+00
  0.00000000E+00  0.00000000E+00  0.00000000E+00
  0.00000000E+00  0.00000000E+00  0.00000000E+00
  0.00000000E+00  0.00000000E+00  0.00000000E+00
  0.00000000E+00  0.00000000E+00  0.00000000E+00
  0.00000000E+00  0.00000000E+00  0.00000000E+00
  0.00000000E+00  0.00000000E+00  0.00000000E+00
  0.00000000E+00  0.00000000E+00  0.00000000E+00
  0.00000000E+00  0.00000000E+00  0.00000000E+00
  0.00000000E+00  0.00000000E+00  0.00000000E+00
  0.00000000E+00  0.00000000E+00  0.00000000E+00
  0.00000000E+00  0.00000000E+00  0.00000000E+00
  0.00000000E+00  0.00000000E+00  0.00000000E+00
  0.00000000E+00  0.00000000E+00  0.00000000E+00
  0.00000000E+00  0.00000000E+00  0.00000000E+00
  0.00000000E+00  0.00000000E+00  0.00000000E+00
  0.00000000E+00  0.00000000E+00  0.00000000E+00
  0.00000000E+00  0.00000000E+00  0.00000000E+00
  0.00000000E+00  0.00000000E+00  0.00000000E+00
  0.00000000E+00  0.00000000E+00  0.00000000E+00
  0.00000000E+00  0.00000000E+00  0.00000000E+00
  0.00000000E+00  0.00000000E+00  0.00000000E+00
  0.00000000E+00  0.00000000E+00  0.00000000E+00
  0.00000000E+00  0.00000000E+00  0.00000000E+00
  0.00000000E+00  0.00000000E+00  0.00000000E+00
  0.00000000E+00  0.00000000E+00  0.00000000E+00
  0.00000000E+00  0.00000000E+00  0.00000000E+00
  0.00000000E+00  0.00000000E+00  0.00000000E+00
  0.00000000E+00  0.00000000E+00  0.00000000E+00
  0.00000000E+00  0.00000000E+00  0.00000000E+00
  0.00000000E+00  0.00000000E+00  0.00000000E+00
  0.00000000E+00  0.00000000E+00  0.00000000E+00
  0.00000000E+00  0.00000000E+00  0.00000000E+00
  0.00000000E+00  0.00000000E+00  0.00000000E+00
  0.00000000E+00  0.00000000E+00  0.00000000E+00
  0.00000000E+00  0.00000000E+00  0.00000000E+00
  0.00000000E+00  0.00000000E+00  0.00000000E+00
  0.00000000E+00  0.00000000E+00  0.00000000E+00
  0.00000000E+00  0.00000000E+00  0.00000000E+00
  0.00000000E+00  0.00000000E+00  0.00000000E+00
  0.00000000E+00  0.00000000E+00  0.00000000E+00
  0.00000000E+00  0.00000000E+00  0.00000000E+00
  0.00000000E+00  0.00000000E+00  0.00000000E+00
  0.00000000E+00  0.00000000E+00  0.00000000E+00
  0.00000000E+00  0.00000000E+00  0.00000000E+00
  0.00000000E+00  0.00000000E+00  0.00000000E+00
  0.00000000E+00  0.00000000E+00  0.00000000E+00
  0.00000000E+00  0.00000000E+00  0.00000000E+00
  0.00000000E+00  0.00000000E+00  0.00000000E+00
  0.00000000E+00  0.00000000E+00  0.00000000E+00
  0.00000000E+00  0.00000000E+00  0.00000000E+00
  0.00000000E+00  0.00000000E+00  0.00000000E+00
