CONTCAR1                                
   1.00000000000000     
     5.0399999619000004    0.0000000000000000    0.0000000000000000
     0.0000000000000000   27.0000000000000000    0.0000000000000000
     0.0000000000000000    0.0000000000000000   23.0000000000000000
   Mo   N    Si
    10    40    20
Direct
  0.9618857016045864  0.2368987570688166  0.4999467704266935
  0.0003933625456487  0.3401115644320095  0.4999481740313835
  0.4881823871926279  0.2826823605349110  0.4999456649219522
  0.9926707220922714  0.4478214791852024  0.4999494854221526
  0.4936147956060584  0.3940486885427954  0.4999489339676962
  0.9935846857890448  0.5561298158361802  0.4999461898087225
  0.4926794418438458  0.5023504044526380  0.4999475371817452
  0.9880908346015154  0.6674918918493730  0.4999425840399369
  0.5003382769597756  0.6100640878425516  0.4999430934695679
  0.4617735864214298  0.7132723917417149  0.4999418168845020
  0.1639390711925401  0.2850616167395976  0.5545123943179427
  0.1639480301973545  0.2850604112017833  0.4453808177041962
  0.3207379601256850  0.2317960053079796  0.3443509252291464
  0.3207270057282775  0.2317947897837391  0.6555377094127294
  0.6953201335762418  0.2280435550793376  0.5582529022036978
  0.6953286874607600  0.2280450544780837  0.4416400797580808
  0.1596610382203378  0.3940657769439382  0.5544886406280550
  0.1596666652137068  0.3940666762461014  0.4454098712969454
  0.3241349233465949  0.3402988802946457  0.3481935207155477
  0.3241278332005164  0.3402982817802224  0.6517020314121732
  0.6579773620942904  0.3389824547215434  0.5532842035934393
  0.6579799088164793  0.3389824608423543  0.4466096200476734
  0.1562433343852680  0.5020529628431630  0.5545900210319263
  0.1562336844479084  0.5020514195091420  0.4453045352537713
  0.3243256523566425  0.4480584820454936  0.3472317021398845
  0.3243430436766238  0.4480573819992664  0.6526674269512478
  0.6562573744495992  0.4481222486513312  0.5546018216735523
  0.6562598859601639  0.4481219028450258  0.4452943480026949
  0.1579181050408658  0.6111939344964835  0.5532797117815116
  0.1579114292189751  0.6111942214303090  0.4466075232728361
  0.3248071759666265  0.5556238844573818  0.3479137181372211
  0.3248256177365678  0.5556246876465031  0.6519825368330741
  0.6596391751128228  0.5561134685684348  0.5544812566341011
  0.6596449454135336  0.5561119316364721  0.4454086446421397
  0.1952101756711147  0.7221360263168051  0.5582483834010383
  0.1951994429543621  0.7221347469293105  0.4416362912373211
  0.3265599719738844  0.6627944694329735  0.3466509037377337
  0.3265768208359159  0.6627935904561919  0.6532322416905173
  0.6638540884665400  0.6651174100532845  0.5545100179173101
  0.6638565643322252  0.6651167160923819  0.4453743528847027
  0.8267546988426795  0.2873919166057082  0.3466479400224777
  0.8267385979340155  0.2873925908234421  0.6532422796361232
  0.8248819319865223  0.3945596768846190  0.3478998360356013
  0.8248854214293948  0.3945583309496037  0.6519982623393769
  0.8243126812705585  0.5021384293015509  0.3472322496399089
  0.8243332770444092  0.5021373269072719  0.6526606233976845
  0.8240052637726450  0.6098961645403441  0.3481885831202487
  0.8240175015099377  0.6098967972864400  0.6516965751560597
  0.8205494919736561  0.7183972777293185  0.3443420257686086
  0.8205555649266337  0.7183991319158384  0.6555406328912364
  0.1587191242625635  0.2830868554732431  0.6328602081431840
  0.1587361109441958  0.2830864616754142  0.3670336956984389
  0.6164655196864033  0.2406356429317655  0.6279386252070243
  0.6164745786567327  0.2406344412847390  0.3719527119855477
  0.1571850659679954  0.3938184056621749  0.6307843909120325
  0.1571768068340247  0.3938184421813909  0.3691151113186008
  0.6549866354772592  0.3410272106240790  0.6304064704221415
  0.6550062069364876  0.3410253787916342  0.3694858602392396
  0.1557258087334473  0.5017832421978141  0.6307283787609727
  0.1556966448911349  0.5017836591148681  0.3691672341306719
  0.6557547585347533  0.4484000215504301  0.6307530115792191
  0.6557350947412675  0.4484023363909586  0.3691431462932118
  0.1548730610023756  0.6091472040142163  0.6304039663347154
  0.1548587767068472  0.6091499575005072  0.3694843732487147
  0.6571238126133518  0.5563799699671390  0.6307742513527256
  0.6571073051951872  0.5563806267678412  0.3691163674459716
  0.1162611897560960  0.7095531826704590  0.6279327472708029
  0.1162548200510801  0.7095564929565454  0.3719499491547338
  0.6585538978958188  0.6671084431303103  0.6328564083547111
  0.6585425985934256  0.6671080728548894  0.3670257104434194
 
  0.00000000E+00  0.00000000E+00  0.00000000E+00
  0.00000000E+00  0.00000000E+00  0.00000000E+00
  0.00000000E+00  0.00000000E+00  0.00000000E+00
  0.00000000E+00  0.00000000E+00  0.00000000E+00
  0.00000000E+00  0.00000000E+00  0.00000000E+00
  0.00000000E+00  0.00000000E+00  0.00000000E+00
  0.00000000E+00  0.00000000E+00  0.00000000E+00
  0.00000000E+00  0.00000000E+00  0.00000000E+00
  0.00000000E+00  0.00000000E+00  0.00000000E+00
  0.00000000E+00  0.00000000E+00  0.00000000E+00
  0.00000000E+00  0.00000000E+00  0.00000000E+00
  0.00000000E+00  0.00000000E+00  0.00000000E+00
  0.00000000E+00  0.00000000E+00  0.00000000E+00
  0.00000000E+00  0.00000000E+00  0.00000000E+00
  0.00000000E+00  0.00000000E+00  0.00000000E+00
  0.00000000E+00  0.00000000E+00  0.00000000E+00
  0.00000000E+00  0.00000000E+00  0.00000000E+00
  0.00000000E+00  0.00000000E+00  0.00000000E+00
  0.00000000E+00  0.00000000E+00  0.00000000E+00
  0.00000000E+00  0.00000000E+00  0.00000000E+00
  0.00000000E+00  0.00000000E+00  0.00000000E+00
  0.00000000E+00  0.00000000E+00  0.00000000E+00
  0.00000000E+00  0.00000000E+00  0.00000000E+00
  0.00000000E+00  0.00000000E+00  0.00000000E+00
  0.00000000E+00  0.00000000E+00  0.00000000E+00
  0.00000000E+00  0.00000000E+00  0.00000000E+00
  0.00000000E+00  0.00000000E+00  0.00000000E+00
  0.00000000E+00  0.00000000E+00  0.00000000E+00
  0.00000000E+00  0.00000000E+00  0.00000000E+00
  0.00000000E+00  0.00000000E+00  0.00000000E+00
  0.00000000E+00  0.00000000E+00  0.00000000E+00
  0.00000000E+00  0.00000000E+00  0.00000000E+00
  0.00000000E+00  0.00000000E+00  0.00000000E+00
  0.00000000E+00  0.00000000E+00  0.00000000E+00
  0.00000000E+00  0.00000000E+00  0.00000000E+00
  0.00000000E+00  0.00000000E+00  0.00000000E+00
  0.00000000E+00  0.00000000E+00  0.00000000E+00
  0.00000000E+00  0.00000000E+00  0.00000000E+00
  0.00000000E+00  0.00000000E+00  0.00000000E+00
  0.00000000E+00  0.00000000E+00  0.00000000E+00
  0.00000000E+00  0.00000000E+00  0.00000000E+00
  0.00000000E+00  0.00000000E+00  0.00000000E+00
  0.00000000E+00  0.00000000E+00  0.00000000E+00
  0.00000000E+00  0.00000000E+00  0.00000000E+00
  0.00000000E+00  0.00000000E+00  0.00000000E+00
  0.00000000E+00  0.00000000E+00  0.00000000E+00
  0.00000000E+00  0.00000000E+00  0.00000000E+00
  0.00000000E+00  0.00000000E+00  0.00000000E+00
  0.00000000E+00  0.00000000E+00  0.00000000E+00
  0.00000000E+00  0.00000000E+00  0.00000000E+00
  0.00000000E+00  0.00000000E+00  0.00000000E+00
  0.00000000E+00  0.00000000E+00  0.00000000E+00
  0.00000000E+00  0.00000000E+00  0.00000000E+00
  0.00000000E+00  0.00000000E+00  0.00000000E+00
  0.00000000E+00  0.00000000E+00  0.00000000E+00
  0.00000000E+00  0.00000000E+00  0.00000000E+00
  0.00000000E+00  0.00000000E+00  0.00000000E+00
  0.00000000E+00  0.00000000E+00  0.00000000E+00
  0.00000000E+00  0.00000000E+00  0.00000000E+00
  0.00000000E+00  0.00000000E+00  0.00000000E+00
  0.00000000E+00  0.00000000E+00  0.00000000E+00
  0.00000000E+00  0.00000000E+00  0.00000000E+00
  0.00000000E+00  0.00000000E+00  0.00000000E+00
  0.00000000E+00  0.00000000E+00  0.00000000E+00
  0.00000000E+00  0.00000000E+00  0.00000000E+00
  0.00000000E+00  0.00000000E+00  0.00000000E+00
  0.00000000E+00  0.00000000E+00  0.00000000E+00
  0.00000000E+00  0.00000000E+00  0.00000000E+00
  0.00000000E+00  0.00000000E+00  0.00000000E+00
  0.00000000E+00  0.00000000E+00  0.00000000E+00
