CONTCAR1                                
   1.00000000000000     
     5.0399999619000004    0.0000000000000000    0.0000000000000000
     0.0000000000000000   36.0000000000000000    0.0000000000000000
     0.0000000000000000    0.0000000000000000   23.0000000000000000
   Mo   N    Si
    16    64    32
Direct
  0.9624085942223959  0.2685826646189284  0.4999455729202748
  0.0005022280201525  0.3459650708599855  0.4999455959558122
  0.4883219193558933  0.3028950579278082  0.4999452855720944
  0.9916589851935877  0.4267377320972551  0.4999469599122176
  0.4936386311114446  0.3864233075496133  0.4999455146523091
  0.9907251763343389  0.5078000656074624  0.4999481893190869
  0.4919036518828789  0.4673678521912714  0.4999478774107756
  0.9905857919640385  0.5886353515950258  0.4999501383117066
  0.4905673035254971  0.5481660367890100  0.4999497836288867
  0.9918710933713285  0.6694303003186969  0.4999475093440906
  0.4907029100071451  0.6290039084970058  0.4999491352149779
  0.9936187132919324  0.7503784763951691  0.4999456824379812
  0.4916525647033979  0.7100620943799261  0.4999461562427230
  0.9883017228020166  0.8339087054176662  0.4999446630612042
  0.5004930629467194  0.7908351466082599  0.4999437841756684
  0.4623636883367386  0.8682189522790832  0.4999430031287247
  0.1640109742276749  0.3047229807967921  0.5545269187983670
  0.1640100012948286  0.3047235658483841  0.4453646497832948
  0.3205420206775245  0.2647342513320319  0.3444633438767356
  0.3205451010717313  0.2647333834209548  0.6554300311564037
  0.6954238894572543  0.2619270396535568  0.5581818480495002
  0.6954281753181734  0.2619277956464219  0.4417083273929033
  0.1594356469188064  0.3864718664111091  0.5544742243028565
  0.1594302966042657  0.3864730234780400  0.4454153606863844
  0.3242117315115678  0.3461479524090214  0.3481637336625786
  0.3242195367813352  0.3461447426954439  0.6517285815573308
  0.6582907559466192  0.3451316600370508  0.5532792708094584
  0.6582881812609515  0.3451318961972458  0.4466122193142779
  0.1558292681540994  0.4673492619389329  0.5547043265629055
  0.1558280717671987  0.4673493214730131  0.4451867308294933
  0.3246430843637428  0.4270200598382369  0.3471225728424986
  0.3246492090348121  0.4270178484520367  0.6527678292845444
  0.6561323941103616  0.4269127959069341  0.5547325549878027
  0.6561278629657098  0.4269141695670652  0.4451588020264755
  0.1551984978848781  0.5481982581481558  0.5548417213844437
  0.1552012997307320  0.5481982358026550  0.4450498139514590
  0.3249372628312214  0.5077980250430442  0.3469120289566479
  0.3249481723297709  0.5077968565320113  0.6529808945019360
  0.6557812078855177  0.5078057522565197  0.5548643519403277
  0.6557773433411579  0.5078054513622243  0.4450260051980076
  0.1557620699337327  0.6289976399808392  0.5548705734706052
  0.1557610126717822  0.6289965854085603  0.4450219225359160
  0.3251008614422284  0.5885757893349806  0.3468339888102397
  0.3251053684395769  0.5885762339172567  0.6530593537124599
  0.6552110395683979  0.5886038925454152  0.5548315754970240
  0.6552085579307956  0.5886039331702659  0.4450614512616178
  0.1561095664581686  0.7098868384514554  0.5547237246673514
  0.1561115651085120  0.7098860753270197  0.4451678517276712
  0.3249124001483447  0.6693221250126511  0.3469339418187015
  0.3249302983428222  0.6693243064069507  0.6529579733066808
  0.6558036773964595  0.6694490634860875  0.5547083778335331
  0.6557977543118121  0.6694488136789635  0.4451791887150764
  0.1582630355446381  0.7916708767635505  0.5532720031312389
  0.1582624604405997  0.7916709160607041  0.4466186798143195
  0.3251379440669670  0.7499834245401825  0.3478181173148435
  0.3251548163918703  0.7499873244053523  0.6520733243098923
  0.6594343121530777  0.7503288064974498  0.5544706237176814
  0.6594296897116223  0.7503279971305122  0.4454162194014912
  0.1954113664243949  0.8748793129431158  0.5581854264908742
  0.1954040041643382  0.8748783151756426  0.4417020799397108
  0.3264621829420540  0.8303747246224171  0.3466760722624401
  0.3264731247952058  0.8303752679973841  0.6532122730318960
  0.6639901013909754  0.8320805649346462  0.5545226129444641
  0.6639888657205590  0.8320808851268869  0.4453650041842845
  0.8265756387502369  0.3064286879384461  0.3466653868264377
  0.8265765435386118  0.3064273855637758  0.6532251673600633
  0.8251633811476303  0.3868200431961302  0.3478015299288992
  0.8251819303318264  0.3868188424015878  0.6520910859497993
  0.8249244590569638  0.4674844201860229  0.3469389522529160
  0.8249305387886542  0.4674842937477202  0.6529522787147882
  0.8250818901614290  0.5482303546430702  0.3468311837491330
  0.8250916888811763  0.5482300626233260  0.6530651739107997
  0.8249343699340683  0.6290019176677388  0.3469118037436854
  0.8249392210014286  0.6290027051569558  0.6529836014117045
  0.8246390939501863  0.7097856639792608  0.3471292699247624
  0.8246533354567410  0.7097876941845456  0.6527593420925925
  0.8241652931740416  0.7906611419331635  0.3481678013542931
  0.8241656391514416  0.7906627057468208  0.6517242126181159
  0.8204192240161999  0.8720733947551390  0.3444620371267350
  0.8204421500040541  0.8720730766911486  0.6554253078642260
  0.1586557576075822  0.3032374645471262  0.6328636861149717
  0.1586616151168479  0.3032398342352052  0.3670265297697757
  0.6163375032458784  0.2713585334399422  0.6278518488238991
  0.6163419343647870  0.2713580345957619  0.3720358220991764
  0.1574424505340191  0.3863118525913646  0.6307715072950706
  0.1574252321578419  0.3863159598615188  0.3691159436226178
  0.6551078893329564  0.3466740429360098  0.6304013952635937
  0.6551078986770114  0.3466731713827399  0.3694919469503453
  0.1563620614095683  0.4673836681185780  0.6308400071719961
  0.1563545044305048  0.4673848256676339  0.3690532977121526
  0.6560039289563779  0.4271685583210421  0.6308535764278757
  0.6559946318871459  0.4271705664236963  0.3690409364661650
  0.1564889723187665  0.5481932182300215  0.6309645793663542
  0.1564799257523527  0.5481946043992454  0.3689296488899695
  0.6564296926530546  0.5078640758814892  0.6309764348371133
  0.6564227495808727  0.5078633117876957  0.3689159996018844
  0.1564298950212165  0.6289478844212388  0.6309886169807487
  0.1564194669159767  0.6289467160149345  0.3689102205189137
  0.6564950676815298  0.5886083401200594  0.6309440282109781
  0.6564908786914850  0.5886080018791683  0.3689531330681516
  0.1560022276780488  0.7096365359907654  0.6308349252646802
  0.1559825413116311  0.7096340315866353  0.3690591960853657
  0.6563677804298775  0.6694142305652045  0.6308485723551064
  0.6563479799342465  0.6694139277294000  0.3690386132989673
  0.1550357587937450  0.7901251364364045  0.6303854303536457
  0.1550339555496711  0.7901241436931196  0.3695061616945056
  0.6574488070758371  0.7504972749252982  0.6307683651769742
  0.6574266889262097  0.7504954366190441  0.3691182219020770
  0.1162357558589069  0.8654506422810192  0.6278533986156003
  0.1162095728301262  0.8654500819127470  0.3720358599804875
  0.6585347314939398  0.8335691552495460  0.6328540092575629
  0.6585274883991187  0.8335675074441052  0.3670306469490924
 
  0.00000000E+00  0.00000000E+00  0.00000000E+00
  0.00000000E+00  0.00000000E+00  0.00000000E+00
  0.00000000E+00  0.00000000E+00  0.00000000E+00
  0.00000000E+00  0.00000000E+00  0.00000000E+00
  0.00000000E+00  0.00000000E+00  0.00000000E+00
  0.00000000E+00  0.00000000E+00  0.00000000E+00
  0.00000000E+00  0.00000000E+00  0.00000000E+00
  0.00000000E+00  0.00000000E+00  0.00000000E+00
  0.00000000E+00  0.00000000E+00  0.00000000E+00
  0.00000000E+00  0.00000000E+00  0.00000000E+00
  0.00000000E+00  0.00000000E+00  0.00000000E+00
  0.00000000E+00  0.00000000E+00  0.00000000E+00
  0.00000000E+00  0.00000000E+00  0.00000000E+00
  0.00000000E+00  0.00000000E+00  0.00000000E+00
  0.00000000E+00  0.00000000E+00  0.00000000E+00
  0.00000000E+00  0.00000000E+00  0.00000000E+00
  0.00000000E+00  0.00000000E+00  0.00000000E+00
  0.00000000E+00  0.00000000E+00  0.00000000E+00
  0.00000000E+00  0.00000000E+00  0.00000000E+00
  0.00000000E+00  0.00000000E+00  0.00000000E+00
  0.00000000E+00  0.00000000E+00  0.00000000E+00
  0.00000000E+00  0.00000000E+00  0.00000000E+00
  0.00000000E+00  0.00000000E+00  0.00000000E+00
  0.00000000E+00  0.00000000E+00  0.00000000E+00
  0.00000000E+00  0.00000000E+00  0.00000000E+00
  0.00000000E+00  0.00000000E+00  0.00000000E+00
  0.00000000E+00  0.00000000E+00  0.00000000E+00
  0.00000000E+00  0.00000000E+00  0.00000000E+00
  0.00000000E+00  0.00000000E+00  0.00000000E+00
  0.00000000E+00  0.00000000E+00  0.00000000E+00
  0.00000000E+00  0.00000000E+00  0.00000000E+00
  0.00000000E+00  0.00000000E+00  0.00000000E+00
  0.00000000E+00  0.00000000E+00  0.00000000E+00
  0.00000000E+00  0.00000000E+00  0.00000000E+00
  0.00000000E+00  0.00000000E+00  0.00000000E+00
  0.00000000E+00  0.00000000E+00  0.00000000E+00
  0.00000000E+00  0.00000000E+00  0.00000000E+00
  0.00000000E+00  0.00000000E+00  0.00000000E+00
  0.00000000E+00  0.00000000E+00  0.00000000E+00
  0.00000000E+00  0.00000000E+00  0.00000000E+00
  0.00000000E+00  0.00000000E+00  0.00000000E+00
  0.00000000E+00  0.00000000E+00  0.00000000E+00
  0.00000000E+00  0.00000000E+00  0.00000000E+00
  0.00000000E+00  0.00000000E+00  0.00000000E+00
  0.00000000E+00  0.00000000E+00  0.00000000E+00
  0.00000000E+00  0.00000000E+00  0.00000000E+00
  0.00000000E+00  0.00000000E+00  0.00000000E+00
  0.00000000E+00  0.00000000E+00  0.00000000E+00
  0.00000000E+00  0.00000000E+00  0.00000000E+00
  0.00000000E+00  0.00000000E+00  0.00000000E+00
  0.00000000E+00  0.00000000E+00  0.00000000E+00
  0.00000000E+00  0.00000000E+00  0.00000000E+00
  0.00000000E+00  0.00000000E+00  0.00000000E+00
  0.00000000E+00  0.00000000E+00  0.00000000E+00
  0.00000000E+00  0.00000000E+00  0.00000000E+00
  0.00000000E+00  0.00000000E+00  0.00000000E+00
  0.00000000E+00  0.00000000E+00  0.00000000E+00
  0.00000000E+00  0.00000000E+00  0.00000000E+00
  0.00000000E+00  0.00000000E+00  0.00000000E+00
  0.00000000E+00  0.00000000E+00  0.00000000E+00
  0.00000000E+00  0.00000000E+00  0.00000000E+00
  0.00000000E+00  0.00000000E+00  0.00000000E+00
  0.00000000E+00  0.00000000E+00  0.00000000E+00
  0.00000000E+00  0.00000000E+00  0.00000000E+00
  0.00000000E+00  0.00000000E+00  0.00000000E+00
  0.00000000E+00  0.00000000E+00  0.00000000E+00
  0.00000000E+00  0.00000000E+00  0.00000000E+00
  0.00000000E+00  0.00000000E+00  0.00000000E+00
  0.00000000E+00  0.00000000E+00  0.00000000E+00
  0.00000000E+00  0.00000000E+00  0.00000000E+00
  0.00000000E+00  0.00000000E+00  0.00000000E+00
  0.00000000E+00  0.00000000E+00  0.00000000E+00
  0.00000000E+00  0.00000000E+00  0.00000000E+00
  0.00000000E+00  0.00000000E+00  0.00000000E+00
  0.00000000E+00  0.00000000E+00  0.00000000E+00
  0.00000000E+00  0.00000000E+00  0.00000000E+00
  0.00000000E+00  0.00000000E+00  0.00000000E+00
  0.00000000E+00  0.00000000E+00  0.00000000E+00
  0.00000000E+00  0.00000000E+00  0.00000000E+00
  0.00000000E+00  0.00000000E+00  0.00000000E+00
  0.00000000E+00  0.00000000E+00  0.00000000E+00
  0.00000000E+00  0.00000000E+00  0.00000000E+00
  0.00000000E+00  0.00000000E+00  0.00000000E+00
  0.00000000E+00  0.00000000E+00  0.00000000E+00
  0.00000000E+00  0.00000000E+00  0.00000000E+00
  0.00000000E+00  0.00000000E+00  0.00000000E+00
  0.00000000E+00  0.00000000E+00  0.00000000E+00
  0.00000000E+00  0.00000000E+00  0.00000000E+00
  0.00000000E+00  0.00000000E+00  0.00000000E+00
  0.00000000E+00  0.00000000E+00  0.00000000E+00
  0.00000000E+00  0.00000000E+00  0.00000000E+00
  0.00000000E+00  0.00000000E+00  0.00000000E+00
  0.00000000E+00  0.00000000E+00  0.00000000E+00
  0.00000000E+00  0.00000000E+00  0.00000000E+00
  0.00000000E+00  0.00000000E+00  0.00000000E+00
  0.00000000E+00  0.00000000E+00  0.00000000E+00
  0.00000000E+00  0.00000000E+00  0.00000000E+00
  0.00000000E+00  0.00000000E+00  0.00000000E+00
  0.00000000E+00  0.00000000E+00  0.00000000E+00
  0.00000000E+00  0.00000000E+00  0.00000000E+00
  0.00000000E+00  0.00000000E+00  0.00000000E+00
  0.00000000E+00  0.00000000E+00  0.00000000E+00
  0.00000000E+00  0.00000000E+00  0.00000000E+00
  0.00000000E+00  0.00000000E+00  0.00000000E+00
  0.00000000E+00  0.00000000E+00  0.00000000E+00
  0.00000000E+00  0.00000000E+00  0.00000000E+00
  0.00000000E+00  0.00000000E+00  0.00000000E+00
  0.00000000E+00  0.00000000E+00  0.00000000E+00
  0.00000000E+00  0.00000000E+00  0.00000000E+00
  0.00000000E+00  0.00000000E+00  0.00000000E+00
  0.00000000E+00  0.00000000E+00  0.00000000E+00
  0.00000000E+00  0.00000000E+00  0.00000000E+00
