CONTCAR1                                
   1.00000000000000     
    34.0000000000000000    0.0000000000000000    0.0000000000000000
     0.0000000000000000    2.9100000858000001    0.0000000000000000
     0.0000000000000000    0.0000000000000000   23.0000000000000000
   Mo   N    Si
     8    34    16
Direct
  0.3743990620436894  0.0000000000000000  0.5155114328840473
  0.4475734505665240  0.5000000000000000  0.4951274438691563
  0.5207029036734737  0.0000000000000000  0.4970117138840620
  0.5943203219057207  0.5000000000000000  0.4979544000640522
  0.6682682053860257  0.0000000000000000  0.4990717111810175
  0.7425227949141270  0.5000000000000000  0.4999184363758420
  0.8171738948593080  0.0000000000000000  0.5003760306953371
  0.8934915425650584  0.5000000000000000  0.4982765014633843
  0.4058326289761163  0.5000000000000000  0.5534815869207916
  0.3873259239716839  0.5000000000000000  0.4515841402506279
  0.4200301453602487 -0.0000000000000000  0.3523464368381112
  0.4185546948569816 -0.0000000000000000  0.6529934161652871
  0.4713429169784100  0.0000000000000000  0.5506602353145025
  0.4718094700647543 -0.0000000000000000  0.4423455735827992
  0.4953763477822374  0.5000000000000000  0.3442510051646401
  0.4932997489098456  0.5000000000000000  0.6485369650251369
  0.5446354645368203  0.5000000000000000  0.5514804415309895
  0.5453105019826645  0.5000000000000000  0.4429166257823824
  0.5698254622131042 -0.0000000000000000  0.3452000951610470
  0.5676475184930797 -0.0000000000000000  0.6496718185768627
  0.6184563803837938  0.0000000000000000  0.5525923675983451
  0.6191841146173733  0.0000000000000000  0.4441045784399992
  0.6439838284570861  0.5000000000000000  0.3465047034128670
  0.6419642477821147  0.5000000000000000  0.6508771517798909
  0.6925953619353084  0.5000000000000000  0.5535637218936372
  0.6931952799134842  0.5000000000000000  0.4452678314795085
  0.7179527782191226  0.0000000000000000  0.3477408544534596
  0.7161788281111297 -0.0000000000000000  0.6517541388955258
  0.7670442592280293  0.0000000000000000  0.5540808498715906
  0.7674647806401289 -0.0000000000000000  0.4462805273583234
  0.7916349014923006  0.5000000000000000  0.3488867635722576
  0.7901602537198567  0.5000000000000000  0.6520400840014421
  0.8421515283921722  0.5000000000000000  0.5538935259120358
  0.8419473452771791  0.5000000000000000  0.4467661526408188
  0.8646676522268799  0.0000000000000000  0.3476728247871341
  0.8636999339158372  0.0000000000000000  0.6535760763322279
  0.9175398725009665 -0.0000000000000000  0.5539506982504444
  0.9137543608946812  0.0000000000000000  0.4456776938525038
  0.9372436785452947  0.5000000000000000  0.3468694699111443
  0.9369547109835548  0.5000000000000000  0.6618044115816157
  0.3567699236154105  0.0000000000000000  0.5996087506068675
  0.9631887954806897  0.5000000000000000  0.6969748274879529
  0.3895890756609573  0.5000000000000000  0.6255344457680005
  0.3943617183915793  0.5000000000000000  0.3756467300747320
  0.4670716103844461  0.0000000000000000  0.6295102795579666
  0.4706777642510288  0.0000000000000000  0.3664557871920798
  0.5426515362095774  0.5000000000000000  0.6277705948448404
  0.5450594324526693  0.5000000000000000  0.3668039840993816
  0.6172136401014039  0.0000000000000000  0.6286647844094291
  0.6192951830578356  0.0000000000000000  0.3680927044054401
  0.6914815661023422  0.5000000000000000  0.6294594891430394
  0.6934068176081356  0.5000000000000000  0.3691764644245879
  0.7654860056913759  0.0000000000000000  0.6297584416122141
  0.7674813393417190  0.0000000000000000  0.3699533292554739
  0.8390949859140057  0.5000000000000000  0.6294331319084184
  0.8417493136609270  0.5000000000000000  0.3692720747702268
  0.9113205100634498 -0.0000000000000000  0.6250226516561160
  0.9159580766059673 -0.0000000000000000  0.3685633636077496
 
  0.00000000E+00  0.00000000E+00  0.00000000E+00
  0.00000000E+00  0.00000000E+00  0.00000000E+00
  0.00000000E+00  0.00000000E+00  0.00000000E+00
  0.00000000E+00  0.00000000E+00  0.00000000E+00
  0.00000000E+00  0.00000000E+00  0.00000000E+00
  0.00000000E+00  0.00000000E+00  0.00000000E+00
  0.00000000E+00  0.00000000E+00  0.00000000E+00
  0.00000000E+00  0.00000000E+00  0.00000000E+00
  0.00000000E+00  0.00000000E+00  0.00000000E+00
  0.00000000E+00  0.00000000E+00  0.00000000E+00
  0.00000000E+00  0.00000000E+00  0.00000000E+00
  0.00000000E+00  0.00000000E+00  0.00000000E+00
  0.00000000E+00  0.00000000E+00  0.00000000E+00
  0.00000000E+00  0.00000000E+00  0.00000000E+00
  0.00000000E+00  0.00000000E+00  0.00000000E+00
  0.00000000E+00  0.00000000E+00  0.00000000E+00
  0.00000000E+00  0.00000000E+00  0.00000000E+00
  0.00000000E+00  0.00000000E+00  0.00000000E+00
  0.00000000E+00  0.00000000E+00  0.00000000E+00
  0.00000000E+00  0.00000000E+00  0.00000000E+00
  0.00000000E+00  0.00000000E+00  0.00000000E+00
  0.00000000E+00  0.00000000E+00  0.00000000E+00
  0.00000000E+00  0.00000000E+00  0.00000000E+00
  0.00000000E+00  0.00000000E+00  0.00000000E+00
  0.00000000E+00  0.00000000E+00  0.00000000E+00
  0.00000000E+00  0.00000000E+00  0.00000000E+00
  0.00000000E+00  0.00000000E+00  0.00000000E+00
  0.00000000E+00  0.00000000E+00  0.00000000E+00
  0.00000000E+00  0.00000000E+00  0.00000000E+00
  0.00000000E+00  0.00000000E+00  0.00000000E+00
  0.00000000E+00  0.00000000E+00  0.00000000E+00
  0.00000000E+00  0.00000000E+00  0.00000000E+00
  0.00000000E+00  0.00000000E+00  0.00000000E+00
  0.00000000E+00  0.00000000E+00  0.00000000E+00
  0.00000000E+00  0.00000000E+00  0.00000000E+00
  0.00000000E+00  0.00000000E+00  0.00000000E+00
  0.00000000E+00  0.00000000E+00  0.00000000E+00
  0.00000000E+00  0.00000000E+00  0.00000000E+00
  0.00000000E+00  0.00000000E+00  0.00000000E+00
  0.00000000E+00  0.00000000E+00  0.00000000E+00
  0.00000000E+00  0.00000000E+00  0.00000000E+00
  0.00000000E+00  0.00000000E+00  0.00000000E+00
  0.00000000E+00  0.00000000E+00  0.00000000E+00
  0.00000000E+00  0.00000000E+00  0.00000000E+00
  0.00000000E+00  0.00000000E+00  0.00000000E+00
  0.00000000E+00  0.00000000E+00  0.00000000E+00
  0.00000000E+00  0.00000000E+00  0.00000000E+00
  0.00000000E+00  0.00000000E+00  0.00000000E+00
  0.00000000E+00  0.00000000E+00  0.00000000E+00
  0.00000000E+00  0.00000000E+00  0.00000000E+00
  0.00000000E+00  0.00000000E+00  0.00000000E+00
  0.00000000E+00  0.00000000E+00  0.00000000E+00
  0.00000000E+00  0.00000000E+00  0.00000000E+00
  0.00000000E+00  0.00000000E+00  0.00000000E+00
  0.00000000E+00  0.00000000E+00  0.00000000E+00
  0.00000000E+00  0.00000000E+00  0.00000000E+00
  0.00000000E+00  0.00000000E+00  0.00000000E+00
  0.00000000E+00  0.00000000E+00  0.00000000E+00
