CONTCAR1                                
   1.00000000000000     
     5.0399999619000004    0.0000000000000000    0.0000000000000000
     0.0000000000000000   43.0000000000000000    0.0000000000000000
     0.0000000000000000    0.0000000000000000   23.0000000000000000
   Mo   N    Si
    20    80    40
Direct
  0.9621627138302240  0.2057683540196698  0.4999416052182311
  0.0005053824711031  0.2705576560319481  0.4999434233569891
  0.4882943393878328  0.2345089623222807  0.4999423831201682
  0.9915746956120388  0.3382021714267831  0.4999447202392863
  0.4935644102976612  0.3044494911125692  0.4999441397152386
  0.9908279542108980  0.4060830599309440  0.4999447470761061
  0.4918888593552914  0.3722330233010596  0.4999433255945370
  0.9906805648887479  0.4737315635948138  0.4999466854018880
  0.4906023140844379  0.4398807312621202  0.4999458800190534
  0.9905635187628485  0.5413876263836043  0.4999472424829670
  0.4905540815470515  0.5075640903191549  0.4999471472771771
  0.9906211999379656  0.6090729327906621  0.4999462342109652
  0.4906906326578173  0.5752205435331809  0.4999466042042061
  0.9918897979786695  0.6767176687437959  0.4999463885984296
  0.4908370682170035  0.6428702098922287  0.4999471644547751
  0.9935231451343910  0.7445006971720278  0.4999441742635587
  0.4915610554191188  0.7107485007323273  0.4999457920121307
  0.9881983060512665  0.8144424595430030  0.4999421329476445
  0.5004319349842500  0.7783929077352273  0.4999433049283594
  0.4620344098197953  0.8431844628055717  0.4999426054400246
  0.1640998131815747  0.2360072933528443  0.5545164143608928
  0.1640997588494788  0.2360074951902125  0.4453682840629097
  0.3208119455179003  0.2025873496211348  0.3443425555444890
  0.3208271304482188  0.2025894744178724  0.6555410636742787
  0.6953959477473225  0.2002026559849186  0.5582278266032736
  0.6953845226401590  0.2002026876610823  0.4416546200989849
  0.1593732550586231  0.3044784941812964  0.5544585855750633
  0.1593731631210293  0.3044779796747533  0.4454307501440068
  0.3243422384849304  0.2707418572300754  0.3482031716268734
  0.3243421496579045  0.2707442291517126  0.6516836233306367
  0.6581912824629825  0.2698677828190011  0.5532649509207875
  0.6581947861341657  0.2698670951930451  0.4466202707792412
  0.1558392051198587  0.3722087482068164  0.5547018788906850
  0.1558278156038879  0.3722080934441260  0.4451832623411235
  0.3246831568154729  0.3384417923443805  0.3471393293785752
  0.3246911080117876  0.3384443589984279  0.6527516716311943
  0.6560265399260152  0.3383618541026419  0.5547208448979744
  0.6560305190011354  0.3383615602801349  0.4451682919297715
  0.1553699035218840  0.4399039113076065  0.5548600273870566
  0.1553666135097534  0.4399040519915831  0.4450321841938564
  0.3249048257808760  0.4060929115295280  0.3469054462841480
  0.3249514295263586  0.4060945645895768  0.6529836015288956
  0.6558544351615959  0.4060948924611679  0.5548591959525206
  0.6558467600277459  0.4060947799804671  0.4450259684055154
  0.1553982109522966  0.5075627762249578  0.5548349716765032
  0.1553972754472686  0.5075626212944576  0.4450570058093135
  0.3251361239581629  0.4737424499496001  0.3468539152813462
  0.3251632213606946  0.4737443557360487  0.6530393116665447
  0.6553906007427247  0.4737278466483176  0.5548259391826484
  0.6553849776075724  0.4737284541816353  0.4450651157463041
  0.1554046475018218  0.5752247001506201  0.5548197221090626
  0.1553995106013380  0.5752240823706997  0.4450719629166731
  0.3251410468811369  0.5413811773011667  0.3468777840520372
  0.3251463829836245  0.5413814965606629  0.6530155322325901
  0.6554118786426719  0.5413887159107695  0.5548328124310646
  0.6554129263650692  0.5413883529519927  0.4450595834269467
  0.1558731284479233  0.6428586678698052  0.5548666511871492
  0.1558764145881619  0.6428589385692722  0.4450267120886033
  0.3250544712784327  0.6090058771260907  0.3468243458440317
  0.3250826947282157  0.6090059122407436  0.6530679046653840
  0.6553803560213285  0.6090496061654287  0.5548560985694804
  0.6553708623201551  0.6090497089823860  0.4450342503372125
  0.1560193958884984  0.7105891488799085  0.5547208777923448
  0.1560134120621736  0.7105893014516872  0.4451688448028240
  0.3249341824838339  0.6766252036484491  0.3469496073161172
  0.3249589477161524  0.6766249506898682  0.6529436606679658
  0.6558335159703947  0.6767439537230633  0.5547085148666993
  0.6558319107502500  0.6767437708377791  0.4451830748745532
  0.1581143021461914  0.7790835080263711  0.5532631456077919
  0.1581118086536878  0.7790838376430378  0.4466214973806272
  0.3251553918523226  0.7441684620461936  0.3478378767803382
  0.3251713015505238  0.7441676532496974  0.6520501914659822
  0.6593323040425135  0.7444718279846061  0.5544546134308727
  0.6593287682687631  0.7444715149611890  0.4454327215034176
  0.1952952603942482  0.8487523506736828  0.5582315419826239
  0.1952854003297601  0.8487523456373482  0.4416513963541047
  0.3266693624325261  0.8114679601892325  0.3466511848642364
  0.3266703720794661  0.8114671895582731  0.6532323561157453
  0.6639882711729248  0.8129437261338988  0.5545127015851042
  0.6639889210424272  0.8129444151442653  0.4453710716126753
  0.8268430315451651  0.2374861677729623  0.3466478245120939
  0.8268450418804572  0.2374890166199409  0.6532337484541954
  0.8252305961125229  0.3047862086175798  0.3478356092710814
  0.8252320679684434  0.3047877799421864  0.6520534228196421
  0.8249066613632583  0.3723276863645418  0.3469524045373518
  0.8249364099878999  0.3723296172020581  0.6529307940003611
  0.8250509693580413  0.4399458998715982  0.3468197668282026
  0.8250866858292724  0.4399476318467598  0.6530721893231966
  0.8251495804995309  0.5075711817716447  0.3468682695459690
  0.8251617267888506  0.5075719161404856  0.6530238378404124
  0.8251298992015289  0.5752090668099101  0.3468624003029881
  0.8251447195574302  0.5752085445935149  0.6530295278866248
  0.8249341931293710  0.6428596839260101  0.3469031768280939
  0.8249569479444222  0.6428597594790175  0.6529898511411374
  0.8246709317608124  0.7105124070205115  0.3471384507498186
  0.8246923418641859  0.7105123501430762  0.6527507479415328
  0.8242080253161894  0.7782101212029524  0.3482075768136428
  0.8242197056128965  0.7782107126628448  0.6516779444703351
  0.8206294362272608  0.8463655995605950  0.3443488712733625
  0.8206300474774221  0.8463647714513423  0.6555315910630588
  0.1588727577060317  0.2347998643883825  0.6328630292642233
  0.1588738853627379  0.2347981604920426  0.3670224073668238
  0.6165165464861172  0.2081341502754579  0.6278982803441396
  0.6165287301850597  0.2081313181057362  0.3719840802001574
  0.1574681672913851  0.3043687848656163  0.6307502139395164
  0.1574734607298192  0.3043652511670433  0.3691397958914548
  0.6552583267012002  0.2711756304441061  0.6303842412873721
  0.6552604057422111  0.2711734244650434  0.3695005228645694
  0.1564247188763993  0.3722501558212122  0.6308431562780021
  0.1563919538440245  0.3722463153643916  0.3690410770856101
  0.6560473130566217  0.3385707197932381  0.6308276762679386
  0.6560437575762602  0.3385682738526816  0.3690633343991748
  0.1565323852149399  0.4399235191335098  0.6309780997921004
  0.1564893793804525  0.4399216878083135  0.3689160209611657
  0.6564713073601453  0.4061442897784054  0.6309722973464609
  0.6564185153320108  0.4061412688923053  0.3689118867797814
  0.1566035099039471  0.5075592157556560  0.6309417698249069
  0.1565981845728892  0.5075583987075696  0.3689511160854371
  0.6565960939602473  0.4737558835441423  0.6309411830527965
  0.6565655835171611  0.4737544852513860  0.3689493979448950
  0.1565661600944279  0.5751989114681327  0.6309319679184400
  0.1565506487394959  0.5751976359231610  0.3689605443436813
  0.6565910289580577  0.5413905922310128  0.6309399868999848
  0.6565925239617537  0.5413897160811882  0.3689530883513652
  0.1564736889556270  0.6428131048350618  0.6309837724789250
  0.1564519673567433  0.6428141041641000  0.3689116987110505
  0.6565320050464157  0.6090341456801164  0.6309702982402238
  0.6564951266533502  0.6090340349223589  0.3689199250856233
  0.1560624325270599  0.7103804508550474  0.6308287955014471
  0.1560413888497804  0.7103821302227650  0.3690615399691417
  0.6564551960501211  0.6767060177475556  0.6308546118952922
  0.6564368871070495  0.6767053830669160  0.3690378039036212
  0.1551352485765923  0.7777788983688341  0.6303826969686371
  0.1551195698315254  0.7777803916441229  0.3695007386908314
  0.6574082862800255  0.7445843227860349  0.6307442727420030
  0.6573885360061504  0.7445833952715695  0.3691450585082697
  0.1163389204868859  0.8408271323896436  0.6279025708739593
  0.1163374198615099  0.8408271233078531  0.3719783100009634
  0.6586813939892303  0.8141521944927076  0.6328549687251849
  0.6586876192194947  0.8141531005553947  0.3670263592802381
 
  0.00000000E+00  0.00000000E+00  0.00000000E+00
  0.00000000E+00  0.00000000E+00  0.00000000E+00
  0.00000000E+00  0.00000000E+00  0.00000000E+00
  0.00000000E+00  0.00000000E+00  0.00000000E+00
  0.00000000E+00  0.00000000E+00  0.00000000E+00
  0.00000000E+00  0.00000000E+00  0.00000000E+00
  0.00000000E+00  0.00000000E+00  0.00000000E+00
  0.00000000E+00  0.00000000E+00  0.00000000E+00
  0.00000000E+00  0.00000000E+00  0.00000000E+00
  0.00000000E+00  0.00000000E+00  0.00000000E+00
  0.00000000E+00  0.00000000E+00  0.00000000E+00
  0.00000000E+00  0.00000000E+00  0.00000000E+00
  0.00000000E+00  0.00000000E+00  0.00000000E+00
  0.00000000E+00  0.00000000E+00  0.00000000E+00
  0.00000000E+00  0.00000000E+00  0.00000000E+00
  0.00000000E+00  0.00000000E+00  0.00000000E+00
  0.00000000E+00  0.00000000E+00  0.00000000E+00
  0.00000000E+00  0.00000000E+00  0.00000000E+00
  0.00000000E+00  0.00000000E+00  0.00000000E+00
  0.00000000E+00  0.00000000E+00  0.00000000E+00
  0.00000000E+00  0.00000000E+00  0.00000000E+00
  0.00000000E+00  0.00000000E+00  0.00000000E+00
  0.00000000E+00  0.00000000E+00  0.00000000E+00
  0.00000000E+00  0.00000000E+00  0.00000000E+00
  0.00000000E+00  0.00000000E+00  0.00000000E+00
  0.00000000E+00  0.00000000E+00  0.00000000E+00
  0.00000000E+00  0.00000000E+00  0.00000000E+00
  0.00000000E+00  0.00000000E+00  0.00000000E+00
  0.00000000E+00  0.00000000E+00  0.00000000E+00
  0.00000000E+00  0.00000000E+00  0.00000000E+00
  0.00000000E+00  0.00000000E+00  0.00000000E+00
  0.00000000E+00  0.00000000E+00  0.00000000E+00
  0.00000000E+00  0.00000000E+00  0.00000000E+00
  0.00000000E+00  0.00000000E+00  0.00000000E+00
  0.00000000E+00  0.00000000E+00  0.00000000E+00
  0.00000000E+00  0.00000000E+00  0.00000000E+00
  0.00000000E+00  0.00000000E+00  0.00000000E+00
  0.00000000E+00  0.00000000E+00  0.00000000E+00
  0.00000000E+00  0.00000000E+00  0.00000000E+00
  0.00000000E+00  0.00000000E+00  0.00000000E+00
  0.00000000E+00  0.00000000E+00  0.00000000E+00
  0.00000000E+00  0.00000000E+00  0.00000000E+00
  0.00000000E+00  0.00000000E+00  0.00000000E+00
  0.00000000E+00  0.00000000E+00  0.00000000E+00
  0.00000000E+00  0.00000000E+00  0.00000000E+00
  0.00000000E+00  0.00000000E+00  0.00000000E+00
  0.00000000E+00  0.00000000E+00  0.00000000E+00
  0.00000000E+00  0.00000000E+00  0.00000000E+00
  0.00000000E+00  0.00000000E+00  0.00000000E+00
  0.00000000E+00  0.00000000E+00  0.00000000E+00
  0.00000000E+00  0.00000000E+00  0.00000000E+00
  0.00000000E+00  0.00000000E+00  0.00000000E+00
  0.00000000E+00  0.00000000E+00  0.00000000E+00
  0.00000000E+00  0.00000000E+00  0.00000000E+00
  0.00000000E+00  0.00000000E+00  0.00000000E+00
  0.00000000E+00  0.00000000E+00  0.00000000E+00
  0.00000000E+00  0.00000000E+00  0.00000000E+00
  0.00000000E+00  0.00000000E+00  0.00000000E+00
  0.00000000E+00  0.00000000E+00  0.00000000E+00
  0.00000000E+00  0.00000000E+00  0.00000000E+00
  0.00000000E+00  0.00000000E+00  0.00000000E+00
  0.00000000E+00  0.00000000E+00  0.00000000E+00
  0.00000000E+00  0.00000000E+00  0.00000000E+00
  0.00000000E+00  0.00000000E+00  0.00000000E+00
  0.00000000E+00  0.00000000E+00  0.00000000E+00
  0.00000000E+00  0.00000000E+00  0.00000000E+00
  0.00000000E+00  0.00000000E+00  0.00000000E+00
  0.00000000E+00  0.00000000E+00  0.00000000E+00
  0.00000000E+00  0.00000000E+00  0.00000000E+00
  0.00000000E+00  0.00000000E+00  0.00000000E+00
  0.00000000E+00  0.00000000E+00  0.00000000E+00
  0.00000000E+00  0.00000000E+00  0.00000000E+00
  0.00000000E+00  0.00000000E+00  0.00000000E+00
  0.00000000E+00  0.00000000E+00  0.00000000E+00
  0.00000000E+00  0.00000000E+00  0.00000000E+00
  0.00000000E+00  0.00000000E+00  0.00000000E+00
  0.00000000E+00  0.00000000E+00  0.00000000E+00
  0.00000000E+00  0.00000000E+00  0.00000000E+00
  0.00000000E+00  0.00000000E+00  0.00000000E+00
  0.00000000E+00  0.00000000E+00  0.00000000E+00
  0.00000000E+00  0.00000000E+00  0.00000000E+00
  0.00000000E+00  0.00000000E+00  0.00000000E+00
  0.00000000E+00  0.00000000E+00  0.00000000E+00
  0.00000000E+00  0.00000000E+00  0.00000000E+00
  0.00000000E+00  0.00000000E+00  0.00000000E+00
  0.00000000E+00  0.00000000E+00  0.00000000E+00
  0.00000000E+00  0.00000000E+00  0.00000000E+00
  0.00000000E+00  0.00000000E+00  0.00000000E+00
  0.00000000E+00  0.00000000E+00  0.00000000E+00
  0.00000000E+00  0.00000000E+00  0.00000000E+00
  0.00000000E+00  0.00000000E+00  0.00000000E+00
  0.00000000E+00  0.00000000E+00  0.00000000E+00
  0.00000000E+00  0.00000000E+00  0.00000000E+00
  0.00000000E+00  0.00000000E+00  0.00000000E+00
  0.00000000E+00  0.00000000E+00  0.00000000E+00
  0.00000000E+00  0.00000000E+00  0.00000000E+00
  0.00000000E+00  0.00000000E+00  0.00000000E+00
  0.00000000E+00  0.00000000E+00  0.00000000E+00
  0.00000000E+00  0.00000000E+00  0.00000000E+00
  0.00000000E+00  0.00000000E+00  0.00000000E+00
  0.00000000E+00  0.00000000E+00  0.00000000E+00
  0.00000000E+00  0.00000000E+00  0.00000000E+00
  0.00000000E+00  0.00000000E+00  0.00000000E+00
  0.00000000E+00  0.00000000E+00  0.00000000E+00
  0.00000000E+00  0.00000000E+00  0.00000000E+00
  0.00000000E+00  0.00000000E+00  0.00000000E+00
  0.00000000E+00  0.00000000E+00  0.00000000E+00
  0.00000000E+00  0.00000000E+00  0.00000000E+00
  0.00000000E+00  0.00000000E+00  0.00000000E+00
  0.00000000E+00  0.00000000E+00  0.00000000E+00
  0.00000000E+00  0.00000000E+00  0.00000000E+00
  0.00000000E+00  0.00000000E+00  0.00000000E+00
  0.00000000E+00  0.00000000E+00  0.00000000E+00
  0.00000000E+00  0.00000000E+00  0.00000000E+00
  0.00000000E+00  0.00000000E+00  0.00000000E+00
  0.00000000E+00  0.00000000E+00  0.00000000E+00
  0.00000000E+00  0.00000000E+00  0.00000000E+00
  0.00000000E+00  0.00000000E+00  0.00000000E+00
  0.00000000E+00  0.00000000E+00  0.00000000E+00
  0.00000000E+00  0.00000000E+00  0.00000000E+00
  0.00000000E+00  0.00000000E+00  0.00000000E+00
  0.00000000E+00  0.00000000E+00  0.00000000E+00
  0.00000000E+00  0.00000000E+00  0.00000000E+00
  0.00000000E+00  0.00000000E+00  0.00000000E+00
  0.00000000E+00  0.00000000E+00  0.00000000E+00
  0.00000000E+00  0.00000000E+00  0.00000000E+00
  0.00000000E+00  0.00000000E+00  0.00000000E+00
  0.00000000E+00  0.00000000E+00  0.00000000E+00
  0.00000000E+00  0.00000000E+00  0.00000000E+00
  0.00000000E+00  0.00000000E+00  0.00000000E+00
  0.00000000E+00  0.00000000E+00  0.00000000E+00
  0.00000000E+00  0.00000000E+00  0.00000000E+00
  0.00000000E+00  0.00000000E+00  0.00000000E+00
  0.00000000E+00  0.00000000E+00  0.00000000E+00
  0.00000000E+00  0.00000000E+00  0.00000000E+00
  0.00000000E+00  0.00000000E+00  0.00000000E+00
  0.00000000E+00  0.00000000E+00  0.00000000E+00
  0.00000000E+00  0.00000000E+00  0.00000000E+00
  0.00000000E+00  0.00000000E+00  0.00000000E+00
  0.00000000E+00  0.00000000E+00  0.00000000E+00
