CONTCAR1                                
   1.00000000000000     
    32.0000000000000000    0.0000000000000000    0.0000000000000000
     0.0000000000000000    2.9100000858000001    0.0000000000000000
     0.0000000000000000    0.0000000000000000   23.0000000000000000
   N    Si   Mo
    28    14     7
Direct
  0.4647089681663432  0.0000000000000000  0.5554135382479943
  0.4647122603766838  0.0000000000000000  0.4444869986859022
  0.4962610823363347  0.5000000000000000  0.3477985089649305
  0.4962616141985814  0.5000000000000000  0.6521013394287851
  0.5465820975013245  0.5000000000000000  0.5535450295878582
  0.5465812059474012  0.5000000000000000  0.4463560576636633
  0.5745452926847172  0.0000000000000000  0.3486110401494565
  0.5745486297328443  0.0000000000000000  0.6512913160218778
  0.6261238146640536  0.0000000000000000  0.5537906895758123
  0.6261221071122762  0.0000000000000000  0.4461066650842959
  0.6531069232385609  0.5000000000000000  0.3481776234587359
  0.6531116439749668  0.5000000000000000  0.6517169764519612
  0.7052133187567763  0.5000000000000000  0.5539352693858305
  0.7052104981160645  0.5000000000000000  0.4459537052007126
  0.7317961025478459  0.0000000000000000  0.3481846933389843
  0.7317994836168770  0.0000000000000000  0.6517022289916314
  0.7842869943160519  0.0000000000000000  0.5536822042174389
  0.7842870501743914  0.0000000000000000  0.4461987682666816
  0.8103103128014254  0.5000000000000000  0.3487625757272276
  0.8103111178237969  0.5000000000000000  0.6511124917788289
  0.8635176791384055  0.5000000000000000  0.5531560671351287
  0.8635177074645571  0.5000000000000000  0.4467197706745474
  0.8881887553302246  0.0000000000000000  0.3478356765744848
  0.8881833007024678  0.0000000000000000  0.6520462439110174
  0.9395979799694907  0.0000000000000000  0.5543533990895632
  0.9396034511549582  0.0000000000000000  0.4455421414030897
  0.9653056385829382  0.5000000000000000  0.3472916710701296
  0.9653001996831349  0.5000000000000000  0.6526054940244448
  0.4684217106281960  0.0000000000000000  0.6324354762100366
  0.4684230836704656  0.0000000000000000  0.3674664204071177
  0.5483433446979084  0.5000000000000000  0.6299156066226594
  0.5483391704186161  0.5000000000000000  0.3699857650756381
  0.6271698907639146  0.0000000000000000  0.6298988604882177
  0.6271671551553105  0.0000000000000000  0.3700027897445635
  0.7059319564365778  0.5000000000000000  0.6300091661763607
  0.7059298322510087  0.5000000000000000  0.3698799028430186
  0.7847498169963477  0.0000000000000000  0.6299695082395553
  0.7847500281000093  0.0000000000000000  0.3699110444036184
  0.8637846912675160  0.5000000000000000  0.6305093882247116
  0.8637862039974689  0.5000000000000000  0.3693582142934994
  0.9428916478339699  0.0000000000000000  0.6310836760910475
  0.9428932023409242  0.0000000000000000  0.3688163301814658
  0.4422506430627762  0.5000000000000000  0.4999500406220557
  0.5197585298452538  0.0000000000000000  0.4999526026532620
  0.5996029619460603  0.5000000000000000  0.4999503829594603
  0.6789163339538637  0.0000000000000000  0.4999455051891448
  0.7580290864329111  0.5000000000000000  0.4999402560903393
  0.8372194261514233  0.0000000000000000  0.4999373578569393
  0.9187461499359681  0.5000000000000000  0.4999435425162521
 
  0.00000000E+00  0.00000000E+00  0.00000000E+00
  0.00000000E+00  0.00000000E+00  0.00000000E+00
  0.00000000E+00  0.00000000E+00  0.00000000E+00
  0.00000000E+00  0.00000000E+00  0.00000000E+00
  0.00000000E+00  0.00000000E+00  0.00000000E+00
  0.00000000E+00  0.00000000E+00  0.00000000E+00
  0.00000000E+00  0.00000000E+00  0.00000000E+00
  0.00000000E+00  0.00000000E+00  0.00000000E+00
  0.00000000E+00  0.00000000E+00  0.00000000E+00
  0.00000000E+00  0.00000000E+00  0.00000000E+00
  0.00000000E+00  0.00000000E+00  0.00000000E+00
  0.00000000E+00  0.00000000E+00  0.00000000E+00
  0.00000000E+00  0.00000000E+00  0.00000000E+00
  0.00000000E+00  0.00000000E+00  0.00000000E+00
  0.00000000E+00  0.00000000E+00  0.00000000E+00
  0.00000000E+00  0.00000000E+00  0.00000000E+00
  0.00000000E+00  0.00000000E+00  0.00000000E+00
  0.00000000E+00  0.00000000E+00  0.00000000E+00
  0.00000000E+00  0.00000000E+00  0.00000000E+00
  0.00000000E+00  0.00000000E+00  0.00000000E+00
  0.00000000E+00  0.00000000E+00  0.00000000E+00
  0.00000000E+00  0.00000000E+00  0.00000000E+00
  0.00000000E+00  0.00000000E+00  0.00000000E+00
  0.00000000E+00  0.00000000E+00  0.00000000E+00
  0.00000000E+00  0.00000000E+00  0.00000000E+00
  0.00000000E+00  0.00000000E+00  0.00000000E+00
  0.00000000E+00  0.00000000E+00  0.00000000E+00
  0.00000000E+00  0.00000000E+00  0.00000000E+00
  0.00000000E+00  0.00000000E+00  0.00000000E+00
  0.00000000E+00  0.00000000E+00  0.00000000E+00
  0.00000000E+00  0.00000000E+00  0.00000000E+00
  0.00000000E+00  0.00000000E+00  0.00000000E+00
  0.00000000E+00  0.00000000E+00  0.00000000E+00
  0.00000000E+00  0.00000000E+00  0.00000000E+00
  0.00000000E+00  0.00000000E+00  0.00000000E+00
  0.00000000E+00  0.00000000E+00  0.00000000E+00
  0.00000000E+00  0.00000000E+00  0.00000000E+00
  0.00000000E+00  0.00000000E+00  0.00000000E+00
  0.00000000E+00  0.00000000E+00  0.00000000E+00
  0.00000000E+00  0.00000000E+00  0.00000000E+00
  0.00000000E+00  0.00000000E+00  0.00000000E+00
  0.00000000E+00  0.00000000E+00  0.00000000E+00
  0.00000000E+00  0.00000000E+00  0.00000000E+00
  0.00000000E+00  0.00000000E+00  0.00000000E+00
  0.00000000E+00  0.00000000E+00  0.00000000E+00
  0.00000000E+00  0.00000000E+00  0.00000000E+00
  0.00000000E+00  0.00000000E+00  0.00000000E+00
  0.00000000E+00  0.00000000E+00  0.00000000E+00
  0.00000000E+00  0.00000000E+00  0.00000000E+00
