 CONTCAR1                               
   1.00000000000000     
    34.0000000000000000    0.0000000000000000    0.0000000000000000
     0.0000000000000000    8.7300004959000006    0.0000000000000000
     0.0000000000000000    0.0000000000000000   23.0000000000000000
   Mo   N    Si
    24   102    48
Selective dynamics
Direct
  0.3744271644797389  0.0006810955856375  0.4968082148858075   T   T   T
  0.3745499511336938  0.3333354155361880  0.5000415774351644   T   T   T
  0.3744349780509976  0.6660358970327144  0.5033089845346901   T   T   T
  0.4463584306959237  0.1669860628279371  0.5008517346486289   T   T   T
  0.4463564866745525  0.4996979198819432  0.4991947214498041   T   T   T
  0.4470685716910476  0.8333396637089198  0.5000241611948428   T   T   T
  0.5212015371049793  0.0003814829667630  0.5006208097703641   T   T   T
  0.5206809056914941  0.3333450785776925  0.4999918379888093   T   T   T
  0.5212028559432145  0.6662957593464884  0.4993670556345178   T   T   T
  0.5952745822775413  0.1669112450653426  0.5003249187731330   T   T   T
  0.5952772458465558  0.4997681915077765  0.4996043746609441   T   T   T
  0.5955242685625318  0.8333434690283967  0.4999659502427015   T   T   T
  0.6696334319275027  0.0001286900453144  0.5000264669351653   T   T   T
  0.6695651609093749  0.3333377473101352  0.4999431771577053   T   T   T
  0.6696329681203357  0.6665575685232007  0.4998588112959478   T   T   T
  0.7439665450384201  0.1668133902354395  0.4998885876533098   T   T   T
  0.7439656822699999  0.4998617840681965  0.4999806979964883   T   T   T
  0.7439700224095211  0.8333273780160495  0.4999342461331156   T   T   T
  0.8186073299999990  0.0003462199999973  0.4994097590000024   F   F   F
  0.8187517280000023  0.3333150540000034  0.4999405399999972   F   F   F
  0.8186085640000016  0.6662969220000008  0.5004766710000013   F   F   F
  0.8949177120000016  0.1683903899999990  0.4972147730000032   F   F   F
  0.8949169830000017  0.4982311690000003  0.5027087249999980   F   F   F
  0.8943918450000012  0.8333183860000020  0.4999700210000029   F   F   F
  0.3931144791004947  0.1647080044931230  0.5554828630054616   T   T   T
  0.3979519614534778  0.4974189804969866  0.5540746301368561   T   T   T
  0.3975423951776682  0.8363801372477183  0.5533503105425738   T   T   T
  0.3979254613327955  0.1692492929957023  0.4459981979228887   T   T   T
  0.3930811791440643  0.5019698552111048  0.4446038126409029   T   T   T
  0.3975120824601932  0.8302809405954634  0.4467356391114542   T   T   T
  0.4289677301409751  0.0001766253443274  0.3452005726896467   T   T   T
  0.4188967461093077  0.3250724702191161  0.3484815452729508   T   T   T
  0.4190406927936632  0.6767904464190830  0.3484143663730674   T   T   T
  0.4190901752153505 -0.0101218921804509  0.6516625348910564   T   T   T
  0.4189464151956246  0.3416563150826602  0.6515827958306583   T   T   T
  0.4290134263804350  0.6664909239098015  0.6548638155164119   T   T   T
  0.4710765646042132  0.9997044791098354  0.5542949814116179   T   T   T
  0.4707451521677605  0.3350093113615121  0.5540371073201031   T   T   T
  0.4721704860779048  0.6652142431409649  0.5532171266334200   T   T   T
  0.4721507310116367  0.0014651673024656  0.4468228373371714   T   T   T
  0.4707260961069463  0.3316721402821098  0.4459848906479409   T   T   T
  0.4710636762652814  0.6669712756266160  0.4457236745958403   T   T   T
  0.4976290202725164  0.1705426521523120  0.3485320267765825   T   T   T
  0.4942646733061796  0.5001492594070952  0.3481726666459826   T   T   T
  0.4976609588014545  0.8305533454545553  0.3486320395918738   T   T   T
  0.4943019483651825  0.1665114557380690  0.6518359144473863   T   T   T
  0.4976710357731592  0.4961041723091836  0.6514766236533672   T   T   T
  0.4976927549066950  0.8361003769842767  0.6513847899014399   T   T   T
  0.5454280645802956  0.1673503997360383  0.5545615831708164   T   T   T
  0.5459301423845219  0.4996625210410969  0.5535612184424507   T   T   T
  0.5461598695504173  0.8328684049655465  0.5538149488304895   T   T   T
  0.5459159161450011  0.1669979214333916  0.4464006241086668   T   T   T
  0.5454146922812895  0.4993263821103462  0.4454027230845148   T   T   T
  0.5461474638188845  0.8338336438933958  0.4461507333013255   T   T   T
  0.5706380747442403  0.0004997006398585  0.3483896594431659   T   T   T
  0.5705062680634591  0.3353166738782470  0.3478107956100335   T   T   T
  0.5704964424798095  0.6650201207993399  0.3478386497558426   T   T   T
  0.5705265305707297  0.0016680017748931  0.6521167879962326   T   T   T
  0.5705375397652391  0.3313390388198323  0.6521470030241787   T   T   T
  0.5706618762655664  0.6661762035737248  0.6515472960081231   T   T   T
  0.6201125960819593  0.0001532545684646  0.5542505329791153   T   T   T
  0.6200146023464522  0.3335511283378854  0.5541520170642833   T   T   T
  0.6201398133320442  0.6662309739044595  0.5539188016665055   T   T   T
  0.6201261819727298  0.0004534375367969  0.4459945337290144   T   T   T
  0.6200035193179001  0.3331285036043919  0.4457644690367835   T   T   T
  0.6201002659432953  0.6665295092261150  0.4456665758404998   T   T   T
  0.6444487618516147  0.1672291918649111  0.3478283860081096   T   T   T
  0.6447322799513756  0.5000647621326447  0.3476886122522709   T   T   T
  0.6444660824732832  0.8332518274547561  0.3478916389719001   T   T   T
  0.6447532152155057  0.1666214673637776  0.6522153152846358   T   T   T
  0.6444668483357213  0.4994570103867227  0.6520745619930460   T   T   T
  0.6444845462636717  0.8334329726727402  0.6520161901615689   T   T   T
  0.6943515954194093  0.1668103848403648  0.5540983860956059   T   T   T
  0.6942757874736469  0.4998996987912253  0.5540862142561210   T   T   T
  0.6943272675805788  0.8332444407346403  0.5540891767434168   T   T   T
  0.6942720014656788  0.1667808086310405  0.4458031248317319   T   T   T
  0.6943447454926078  0.4998734130787755  0.4457891928333464   T   T   T
  0.6943233030391502  0.8334365667565563  0.4457990593602782   T   T   T
  0.7183609281634460  0.0003902462528789  0.3477645331109964   T   T   T
  0.7185232629341871  0.3332067191689909  0.3478369831456528   T   T   T
  0.7185178124831738  0.6668104830508350  0.3479414510939907   T   T   T
  0.7185162902666506 -0.0001417860734232  0.6519337900848831   T   T   T
  0.7185257778205522  0.3334753608451506  0.6520417008008080   T   T   T
  0.7183633841066429  0.6662797230437679  0.6521144235401353   T   T   T
  0.7687833050856392  0.0001660670897836  0.5537115744952926   T   T   T
  0.7687451703841954  0.3333423810761450  0.5539260724755141   T   T   T
  0.7685927265209116  0.6664002586236782  0.5541490355206263   T   T   T
  0.7685930890272742  0.0002544281800839  0.4457280916921429   T   T   T
  0.7687471394800303  0.3333406888678060  0.4459454991085081   T   T   T
  0.7687868890760491  0.6664868445935698  0.4461554234373613   T   T   T
  0.7924403580000003  0.1668991949999992  0.3477258679999977   F   F   F
  0.7920809350000013  0.4997521319999976  0.3485803189999999   F   F   F
  0.7918958659999973  0.8338193649999965  0.3481265360000023   F   F   F
  0.7920615809999987  0.1669017489999973  0.6512714469999992   F   F   F
  0.7924372729999973  0.4997758370000014  0.6521520200000026   F   F   F
  0.7918833559999996  0.8328482670000028  0.6517527620000010   F   F   F
  0.8437314869999994  0.1662134890000004  0.5524910219999981   F   F   F
  0.8434264240000005  0.4992424129999975  0.5546842239999989   F   F   F
  0.8432040499999971  0.8342123600000022  0.5534373570000000   F   F   F
  0.8434354560000017  0.1673776849999982  0.4452039060000033   F   F   F
  0.8437378830000029  0.5004141869999970  0.4474010050000032   F   F   F
  0.8432168399999966  0.8324396510000014  0.4464683949999966   F   F   F
  0.8660135269999998  0.9978138680000015  0.3463631300000003   F   F   F
  0.8661235920000010  0.3364354420000026  0.3469893830000004   F   F   F
  0.8642563539999983  0.6667564449999972  0.3483143679999969   F   F   F
  0.8642337459999965  0.9998748100000014  0.6516193719999990   F   F   F
  0.8661041260000033  0.3301647329999966  0.6529160790000006   F   F   F
  0.8659944529999990  0.6688152010000010  0.6535493189999997   F   F   F
  0.9183411320000019  0.0021640499999975  0.5505992229999990   F   F   F
  0.9166093709999998  0.3248715949999976  0.5552934560000011   F   F   F
  0.9170204050000024  0.6757266629999990  0.5565031719999993   F   F   F
  0.9170354959999969  0.9909249099999968  0.4434414320000002   F   F   F
  0.9166181789999968  0.3417720030000027  0.4446382109999973   F   F   F
  0.9183636830000026  0.6644691010000017  0.4493654500000019   F   F   F
  0.9388230830000026  0.1677357900000018  0.3408632900000015   F   F   F
  0.9382123390000032  0.5163285860000002  0.3407312269999991   F   F   F
  0.9381025539999968  0.8177413239999964  0.3401961530000008   F   F   F
  0.9382008380000002  0.1503061780000010  0.6592302740000022   F   F   F
  0.9388014290000015  0.4989028379999993  0.6590827030000028   F   F   F
  0.9380883050000008  0.8488822839999983  0.6597688089999991   F   F   F
  0.3578083830114523  0.6658814987320489  0.6298960098451711   T   T   T
  0.3577687497449737  0.0008391884782498  0.3701659246152730   T   T   T
  0.9645133300000026  0.1163042499999989  0.6916944250000014   F   F   F
  0.9642846719999980  0.8837216539999986  0.6923786250000035   F   F   F
  0.9642983600000008  0.7828876969999996  0.3075880379999987   F   F   F
  0.9645287009999990  0.5503624130000020  0.3082598809999979   F   F   F
  0.3952273947146810  0.1653236882767765  0.6326613380015337   T   T   T
  0.3960051484499472  0.5273846752900407  0.6301817819184283   T   T   T
  0.3959529214098480  0.8051436811413376  0.6293640576314680   T   T   T
  0.3959726374599051  0.1392721263688971  0.3698925102542419   T   T   T
  0.3951897507759050  0.5013853932566925  0.3674203303191181   T   T   T
  0.3959025575828259  0.8616005223125354  0.3707311637134637   T   T   T
  0.4694967374549123  0.9966396358865303  0.6311139968383382   T   T   T
  0.4694164093288908  0.3359399190741516  0.6310446265854085   T   T   T
  0.4751047039471307  0.6660485926762828  0.6300812423533598   T   T   T
  0.4750837835878757  0.0005790937301412  0.3699535827891292   T   T   T
  0.4693795069576473  0.3307259678774590  0.3689838477634352   T   T   T
  0.4694582369500122  0.6700126510661923  0.3689180351590831   T   T   T
  0.5445394270396812  0.1665757302501439  0.6307067626004284   T   T   T
  0.5464650725546543  0.4976328663201767  0.6296715973648908   T   T   T
  0.5465180647250956  0.8349205427184322  0.6298193515618893   T   T   T
  0.5464372472222362  0.1689908402866651  0.3702865519928302   T   T   T
  0.5445079459287816  0.5001005335570284  0.3692612139344034   T   T   T
  0.5464989881895832  0.8318024858778019  0.3701514052818570   T   T   T
  0.6199227132699831  0.0007735957364538  0.6302148801357929   T   T   T
  0.6198923695412173  0.3323364364962239  0.6301632154344234   T   T   T
  0.6200221329333584  0.6663752283090756  0.6299210620168310   T   T   T
  0.6200068097140898  0.0003135019929309  0.3699897683098625   T   T   T
  0.6198754243221366  0.3343512316617240  0.3697515722290817   T   T   T
  0.6199038579005043  0.6659013690496305  0.3697026868806050   T   T   T
  0.6940434026598927  0.1666935557341388  0.6300285854280711   T   T   T
  0.6938290965390255  0.4997097024394663  0.6300484252818623   T   T   T
  0.6938931332510497  0.8332057464382098  0.6300431649968080   T   T   T
  0.6938227506102335  0.1669447278920665  0.3698341548244943   T   T   T
  0.6940367971151518  0.4999783480446565  0.3698467207500529   T   T   T
  0.6938881965597854  0.8334786217658811  0.3698379269506352   T   T   T
  0.7677408016280654  0.9998446336411276  0.6295668585427286   T   T   T
  0.7678136334195831  0.3340449615365351  0.6298219750420009   T   T   T
  0.7677064554716800  0.6656851471627938  0.6300622303712795   T   T   T
  0.7677097606476034  0.0009746777519743  0.3698154694214299   T   T   T
  0.7678192728334130  0.3327006197243238  0.3700470514389216   T   T   T
  0.7677526047088982  0.6667838779223303  0.3702902142760571   T   T   T
  0.8410139639999983  0.1696199120000017  0.6285724230000014   F   F   F
  0.8422840899999997  0.4996610800000028  0.6315221369999975   F   F   F
  0.8408998600000004  0.8297220070000009  0.6294451170000031   F   F   F
  0.8422910470000033  0.1669476570000015  0.3683593579999993   F   F   F
  0.8410330379999991  0.4969668680000012  0.3713167849999977   F   F   F
  0.8409131550000026  0.8369255790000025  0.3704634959999993   F   F   F
  0.9100824240000023  0.9993747039999974  0.6208688070000008   F   F   F
  0.9162541560000008  0.3517900350000005  0.6292670289999975   F   F   F
  0.9162962300000004  0.6473510849999968  0.6300453520000033   F   F   F
  0.9163113199999984  0.0193125099999989  0.3698907109999965   F   F   F
  0.9162725560000027  0.3148402369999985  0.3706645139999978   F   F   F
  0.9100983000000014  0.6672375970000033  0.3790923410000033   F   F   F
 
  0.00000000E+00  0.00000000E+00  0.00000000E+00
  0.00000000E+00  0.00000000E+00  0.00000000E+00
  0.00000000E+00  0.00000000E+00  0.00000000E+00
  0.00000000E+00  0.00000000E+00  0.00000000E+00
  0.00000000E+00  0.00000000E+00  0.00000000E+00
  0.00000000E+00  0.00000000E+00  0.00000000E+00
  0.00000000E+00  0.00000000E+00  0.00000000E+00
  0.00000000E+00  0.00000000E+00  0.00000000E+00
  0.00000000E+00  0.00000000E+00  0.00000000E+00
  0.00000000E+00  0.00000000E+00  0.00000000E+00
  0.00000000E+00  0.00000000E+00  0.00000000E+00
  0.00000000E+00  0.00000000E+00  0.00000000E+00
  0.00000000E+00  0.00000000E+00  0.00000000E+00
  0.00000000E+00  0.00000000E+00  0.00000000E+00
  0.00000000E+00  0.00000000E+00  0.00000000E+00
  0.00000000E+00  0.00000000E+00  0.00000000E+00
  0.00000000E+00  0.00000000E+00  0.00000000E+00
  0.00000000E+00  0.00000000E+00  0.00000000E+00
  0.00000000E+00  0.00000000E+00  0.00000000E+00
  0.00000000E+00  0.00000000E+00  0.00000000E+00
  0.00000000E+00  0.00000000E+00  0.00000000E+00
  0.00000000E+00  0.00000000E+00  0.00000000E+00
  0.00000000E+00  0.00000000E+00  0.00000000E+00
  0.00000000E+00  0.00000000E+00  0.00000000E+00
  0.00000000E+00  0.00000000E+00  0.00000000E+00
  0.00000000E+00  0.00000000E+00  0.00000000E+00
  0.00000000E+00  0.00000000E+00  0.00000000E+00
  0.00000000E+00  0.00000000E+00  0.00000000E+00
  0.00000000E+00  0.00000000E+00  0.00000000E+00
  0.00000000E+00  0.00000000E+00  0.00000000E+00
  0.00000000E+00  0.00000000E+00  0.00000000E+00
  0.00000000E+00  0.00000000E+00  0.00000000E+00
  0.00000000E+00  0.00000000E+00  0.00000000E+00
  0.00000000E+00  0.00000000E+00  0.00000000E+00
  0.00000000E+00  0.00000000E+00  0.00000000E+00
  0.00000000E+00  0.00000000E+00  0.00000000E+00
  0.00000000E+00  0.00000000E+00  0.00000000E+00
  0.00000000E+00  0.00000000E+00  0.00000000E+00
  0.00000000E+00  0.00000000E+00  0.00000000E+00
  0.00000000E+00  0.00000000E+00  0.00000000E+00
  0.00000000E+00  0.00000000E+00  0.00000000E+00
  0.00000000E+00  0.00000000E+00  0.00000000E+00
  0.00000000E+00  0.00000000E+00  0.00000000E+00
  0.00000000E+00  0.00000000E+00  0.00000000E+00
  0.00000000E+00  0.00000000E+00  0.00000000E+00
  0.00000000E+00  0.00000000E+00  0.00000000E+00
  0.00000000E+00  0.00000000E+00  0.00000000E+00
  0.00000000E+00  0.00000000E+00  0.00000000E+00
  0.00000000E+00  0.00000000E+00  0.00000000E+00
  0.00000000E+00  0.00000000E+00  0.00000000E+00
  0.00000000E+00  0.00000000E+00  0.00000000E+00
  0.00000000E+00  0.00000000E+00  0.00000000E+00
  0.00000000E+00  0.00000000E+00  0.00000000E+00
  0.00000000E+00  0.00000000E+00  0.00000000E+00
  0.00000000E+00  0.00000000E+00  0.00000000E+00
  0.00000000E+00  0.00000000E+00  0.00000000E+00
  0.00000000E+00  0.00000000E+00  0.00000000E+00
  0.00000000E+00  0.00000000E+00  0.00000000E+00
  0.00000000E+00  0.00000000E+00  0.00000000E+00
  0.00000000E+00  0.00000000E+00  0.00000000E+00
  0.00000000E+00  0.00000000E+00  0.00000000E+00
  0.00000000E+00  0.00000000E+00  0.00000000E+00
  0.00000000E+00  0.00000000E+00  0.00000000E+00
  0.00000000E+00  0.00000000E+00  0.00000000E+00
  0.00000000E+00  0.00000000E+00  0.00000000E+00
  0.00000000E+00  0.00000000E+00  0.00000000E+00
  0.00000000E+00  0.00000000E+00  0.00000000E+00
  0.00000000E+00  0.00000000E+00  0.00000000E+00
  0.00000000E+00  0.00000000E+00  0.00000000E+00
  0.00000000E+00  0.00000000E+00  0.00000000E+00
  0.00000000E+00  0.00000000E+00  0.00000000E+00
  0.00000000E+00  0.00000000E+00  0.00000000E+00
  0.00000000E+00  0.00000000E+00  0.00000000E+00
  0.00000000E+00  0.00000000E+00  0.00000000E+00
  0.00000000E+00  0.00000000E+00  0.00000000E+00
  0.00000000E+00  0.00000000E+00  0.00000000E+00
  0.00000000E+00  0.00000000E+00  0.00000000E+00
  0.00000000E+00  0.00000000E+00  0.00000000E+00
  0.00000000E+00  0.00000000E+00  0.00000000E+00
  0.00000000E+00  0.00000000E+00  0.00000000E+00
  0.00000000E+00  0.00000000E+00  0.00000000E+00
  0.00000000E+00  0.00000000E+00  0.00000000E+00
  0.00000000E+00  0.00000000E+00  0.00000000E+00
  0.00000000E+00  0.00000000E+00  0.00000000E+00
  0.00000000E+00  0.00000000E+00  0.00000000E+00
  0.00000000E+00  0.00000000E+00  0.00000000E+00
  0.00000000E+00  0.00000000E+00  0.00000000E+00
  0.00000000E+00  0.00000000E+00  0.00000000E+00
  0.00000000E+00  0.00000000E+00  0.00000000E+00
  0.00000000E+00  0.00000000E+00  0.00000000E+00
  0.00000000E+00  0.00000000E+00  0.00000000E+00
  0.00000000E+00  0.00000000E+00  0.00000000E+00
  0.00000000E+00  0.00000000E+00  0.00000000E+00
  0.00000000E+00  0.00000000E+00  0.00000000E+00
  0.00000000E+00  0.00000000E+00  0.00000000E+00
  0.00000000E+00  0.00000000E+00  0.00000000E+00
  0.00000000E+00  0.00000000E+00  0.00000000E+00
  0.00000000E+00  0.00000000E+00  0.00000000E+00
  0.00000000E+00  0.00000000E+00  0.00000000E+00
  0.00000000E+00  0.00000000E+00  0.00000000E+00
  0.00000000E+00  0.00000000E+00  0.00000000E+00
  0.00000000E+00  0.00000000E+00  0.00000000E+00
  0.00000000E+00  0.00000000E+00  0.00000000E+00
  0.00000000E+00  0.00000000E+00  0.00000000E+00
  0.00000000E+00  0.00000000E+00  0.00000000E+00
  0.00000000E+00  0.00000000E+00  0.00000000E+00
  0.00000000E+00  0.00000000E+00  0.00000000E+00
  0.00000000E+00  0.00000000E+00  0.00000000E+00
  0.00000000E+00  0.00000000E+00  0.00000000E+00
  0.00000000E+00  0.00000000E+00  0.00000000E+00
  0.00000000E+00  0.00000000E+00  0.00000000E+00
  0.00000000E+00  0.00000000E+00  0.00000000E+00
  0.00000000E+00  0.00000000E+00  0.00000000E+00
  0.00000000E+00  0.00000000E+00  0.00000000E+00
  0.00000000E+00  0.00000000E+00  0.00000000E+00
  0.00000000E+00  0.00000000E+00  0.00000000E+00
  0.00000000E+00  0.00000000E+00  0.00000000E+00
  0.00000000E+00  0.00000000E+00  0.00000000E+00
  0.00000000E+00  0.00000000E+00  0.00000000E+00
  0.00000000E+00  0.00000000E+00  0.00000000E+00
  0.00000000E+00  0.00000000E+00  0.00000000E+00
  0.00000000E+00  0.00000000E+00  0.00000000E+00
  0.00000000E+00  0.00000000E+00  0.00000000E+00
  0.00000000E+00  0.00000000E+00  0.00000000E+00
  0.00000000E+00  0.00000000E+00  0.00000000E+00
  0.00000000E+00  0.00000000E+00  0.00000000E+00
  0.00000000E+00  0.00000000E+00  0.00000000E+00
  0.00000000E+00  0.00000000E+00  0.00000000E+00
  0.00000000E+00  0.00000000E+00  0.00000000E+00
  0.00000000E+00  0.00000000E+00  0.00000000E+00
  0.00000000E+00  0.00000000E+00  0.00000000E+00
  0.00000000E+00  0.00000000E+00  0.00000000E+00
  0.00000000E+00  0.00000000E+00  0.00000000E+00
  0.00000000E+00  0.00000000E+00  0.00000000E+00
  0.00000000E+00  0.00000000E+00  0.00000000E+00
  0.00000000E+00  0.00000000E+00  0.00000000E+00
  0.00000000E+00  0.00000000E+00  0.00000000E+00
  0.00000000E+00  0.00000000E+00  0.00000000E+00
  0.00000000E+00  0.00000000E+00  0.00000000E+00
  0.00000000E+00  0.00000000E+00  0.00000000E+00
  0.00000000E+00  0.00000000E+00  0.00000000E+00
  0.00000000E+00  0.00000000E+00  0.00000000E+00
  0.00000000E+00  0.00000000E+00  0.00000000E+00
  0.00000000E+00  0.00000000E+00  0.00000000E+00
  0.00000000E+00  0.00000000E+00  0.00000000E+00
  0.00000000E+00  0.00000000E+00  0.00000000E+00
  0.00000000E+00  0.00000000E+00  0.00000000E+00
  0.00000000E+00  0.00000000E+00  0.00000000E+00
  0.00000000E+00  0.00000000E+00  0.00000000E+00
  0.00000000E+00  0.00000000E+00  0.00000000E+00
  0.00000000E+00  0.00000000E+00  0.00000000E+00
  0.00000000E+00  0.00000000E+00  0.00000000E+00
  0.00000000E+00  0.00000000E+00  0.00000000E+00
  0.00000000E+00  0.00000000E+00  0.00000000E+00
  0.00000000E+00  0.00000000E+00  0.00000000E+00
  0.00000000E+00  0.00000000E+00  0.00000000E+00
  0.00000000E+00  0.00000000E+00  0.00000000E+00
  0.00000000E+00  0.00000000E+00  0.00000000E+00
  0.00000000E+00  0.00000000E+00  0.00000000E+00
  0.00000000E+00  0.00000000E+00  0.00000000E+00
  0.00000000E+00  0.00000000E+00  0.00000000E+00
  0.00000000E+00  0.00000000E+00  0.00000000E+00
  0.00000000E+00  0.00000000E+00  0.00000000E+00
  0.00000000E+00  0.00000000E+00  0.00000000E+00
  0.00000000E+00  0.00000000E+00  0.00000000E+00
  0.00000000E+00  0.00000000E+00  0.00000000E+00
  0.00000000E+00  0.00000000E+00  0.00000000E+00
  0.00000000E+00  0.00000000E+00  0.00000000E+00
  0.00000000E+00  0.00000000E+00  0.00000000E+00
  0.00000000E+00  0.00000000E+00  0.00000000E+00
  0.00000000E+00  0.00000000E+00  0.00000000E+00
  0.00000000E+00  0.00000000E+00  0.00000000E+00
  0.00000000E+00  0.00000000E+00  0.00000000E+00
  0.00000000E+00  0.00000000E+00  0.00000000E+00
