 CONTCAR1                               
   1.00000000000000     
    34.0000000000000000    0.0000000000000000    0.0000000000000000
     0.0000000000000000    5.8200001717000003    0.0000000000000000
     0.0000000000000000    0.0000000000000000   23.0000000000000000
   Mo   N    Si
    16    70    32
Selective dynamics
Direct
  0.3755259238157223  0.0000000000000000  0.5034101746875308   F   F   F
  0.3755264420548698  0.5000000000000000  0.5034100755093576   F   F   F
  0.4510531111023752  0.2499846862588271  0.4988717379963603   F   F   F
  0.4510531111023752  0.7500153337411746  0.4988717379963603   F   F   F
  0.5222047863330760 -0.0008131568709714  0.4993619372780402   T   T   T
  0.5222044420910015  0.4991520616842454  0.4993619732996235   T   T   T
  0.5948285046012779  0.2480332713591790  0.4993904834466956   T   T   T
  0.5948241849632970  0.7480262856923328  0.4993909033135477   T   T   T
  0.6683114299163780 -0.0030468592663353  0.4995722981025082   T   T   T
  0.6683125799306271  0.4968589072680583  0.4995726014775331   T   T   T
  0.7423139081181648  0.2461749068552920  0.4997488905777034   T   T   T
  0.7423601845783940  0.7461483342523447  0.4997472593490570   T   T   T
  0.8168549396965195 -0.0033057923299123  0.4999097011068908   T   T   T
  0.8168621757032266  0.4951671028238677  0.4999105802657306   T   T   T
  0.8937959077116467  0.2458002342480193  0.5000584389795050   T   T   T
  0.8930493323793361  0.7457791434024165  0.5000547168879722   T   T   T
  0.4049931773668050  0.2499935828554669  0.5488783343300412   F   F   F
  0.4049931773668050  0.7500064371445347  0.5488783343300412   F   F   F
  0.4022154923897645  0.2499933919168598  0.4527165659091281   F   F   F
  0.4022154923897645  0.7500066280831419  0.4527165659091281   F   F   F
  0.4169479667823595  0.0000000000000000  0.3515939871166580   F   F   F
  0.4169473359816607  0.5000000000000000  0.3516119325735758   F   F   F
  0.4166999275416288  0.0000000000000000  0.6488409587588961   F   F   F
  0.4167003681839176  0.5000000000000000  0.6488299320751594   F   F   F
  0.4734192372361576  0.0000000000000000  0.5542973083689660   F   F   F
  0.4734175406153867  0.5000000000000000  0.5542940492260442   F   F   F
  0.4734302170936431  0.0000000000000000  0.4441573559616145   F   F   F
  0.4734274912307441  0.5000000000000000  0.4441616239042929   F   F   F
  0.4933947939100065  0.2499831854166956  0.3465325848906957   F   F   F
  0.4933947939100065  0.7500168345833060  0.3465325848906957   F   F   F
  0.4930579762417580  0.2499794784746854  0.6520812211721108   F   F   F
  0.4930579762417580  0.7500205415253163  0.6520812211721108   F   F   F
  0.5458295871231684  0.2489159187092637  0.5539079347429283   T   T   T
  0.5458302071804201  0.7489013323193661  0.5538980600334296   T   T   T
  0.5458715710065215  0.2488993892766575  0.4447832519125112   T   T   T
  0.5458722483165698  0.7488843122159298  0.4447937737373239   T   T   T
  0.5682254532943494 -0.0010842907491610  0.3469474036606104   T   T   T
  0.5682270199796124  0.4989413730356379  0.3469515096170225   T   T   T
  0.5678542000795571 -0.0010309373837366  0.6517627365947487   T   T   T
  0.5678545616787443  0.4989918301588745  0.6517604709332596   T   T   T
  0.6189927848318415 -0.0023037650322401  0.5536705155090658   T   T   T
  0.6189980825683213  0.4977626926997170  0.5536697915720878   T   T   T
  0.6191128812919680 -0.0023105867021059  0.4452265894417459   T   T   T
  0.6191190041541978  0.4977532940868346  0.4452274514381946   T   T   T
  0.6426726068394577  0.2477699488370682  0.3473784500456158   T   T   T
  0.6426895125506173  0.7477862192174591  0.3473947358405628   T   T   T
  0.6423124465550744  0.2478872871744892  0.6516118044825163   T   T   T
  0.6423304959203587  0.7478978977314242  0.6515947258062778   T   T   T
  0.6927079062505612  0.2466601780277827  0.5536548918205151   T   T   T
  0.6927824153429090  0.7466412347742071  0.5536232259783642   T   T   T
  0.6928278683051680  0.2466352381477478  0.4456028346782532   T   T   T
  0.6929019571518510  0.7466132405027477  0.4456327730395306   T   T   T
  0.7169023618786086 -0.0031879609995203  0.3479179808747164   T   T   T
  0.7169023685803722  0.4967528536312947  0.3478955141644733   T   T   T
  0.7165636641178047 -0.0030972272126109  0.6514425045243235   T   T   T
  0.7165630562796930  0.4968437368152163  0.6514660709804581   T   T   T
  0.7669592072517346 -0.0036827295490746  0.5534744962579708   T   T   T
  0.7669585855813867  0.4957420874146891  0.5534773154299958   T   T   T
  0.7670702967175661 -0.0036744151035752  0.4461357060915281   T   T   T
  0.7670685972919080  0.4957375557640805  0.4461356092565172   T   T   T
  0.7908122441293794  0.2461348703640826  0.3484743360278509   T   T   T
  0.7908152721037853  0.7461476894887000  0.3487094520007157   T   T   T
  0.7904992668491612  0.2461489335992874  0.6512358260267327   T   T   T
  0.7905039351791101  0.7461620280355786  0.6509983241526438   T   T   T
  0.8416092904650631  0.2458634988544580  0.5533174078436829   T   T   T
  0.8415442235526920  0.7459060842978517  0.5529333266976550   T   T   T
  0.8417136351091807  0.2458639277968619  0.4466099121720862   T   T   T
  0.8416468012691583  0.7459047574270092  0.4469839506704884   T   T   T
  0.8641985392050568 -0.0064750070041317  0.3478989633754766   T   T   T
  0.8641950651873128  0.4980727603683372  0.3479282253826925   T   T   T
  0.8638920338106368 -0.0064731270377235  0.6521082340717202   T   T   T
  0.8638959252497751  0.4980981760867496  0.6520809864622633   T   T   T
  0.9143535649125624 -0.0081759853248694  0.5541609735011909   T   T   T
  0.9143559570396765  0.4997159455901502  0.5541709394150597   T   T   T
  0.9144624650988864 -0.0081813897807752  0.4460358564372870   T   T   T
  0.9144645091779618  0.4997608929611725  0.4460269982849853   T   T   T
  0.9368645021486568  0.2456714268743722  0.3429384934162238   T   T   T
  0.9378425631625202  0.7456606168443340  0.3434171267869061   T   T   T
  0.9365468291399436  0.2456176894848215  0.6573502652015347   T   T   T
  0.9375747818184539  0.7456401595713471  0.6567894251460360   T   T   T
  0.3564011618767537  0.0000000000000000  0.5891511162986518   F   F   F
  0.3564021152346228  0.5000000000000000  0.5891639210106234   F   F   F
  0.3557475123070404  0.0000000000000000  0.4051862351082178   F   F   F
  0.3557503379761968  0.5000000000000000  0.4051776962569704   F   F   F
  0.9663130372913160  0.7455574359030901  0.6865443355845638   T   T   T
  0.9665452356736574  0.7455237690253219  0.3135708549262902   T   T   T
  0.3880824045494506  0.2500138133808818  0.6195612341979597   F   F   F
  0.3880824045494506  0.7499862066191199  0.6195612341979597   F   F   F
  0.3875558181841043  0.2500074507835990  0.3800884412050607   F   F   F
  0.3875558181841043  0.7499925692164098  0.3800884412050607   F   F   F
  0.4667232550413303  0.0000000000000000  0.6319345485845105   F   F   F
  0.4667269895816020  0.5000000000000000  0.6319288465005641   F   F   F
  0.4671636768728575  0.0000000000000000  0.3670445245678167   F   F   F
  0.4671674388713072  0.5000000000000000  0.3670500127705409   F   F   F
  0.5425159715066007  0.2490977828937772  0.6303308305567720   T   T   T
  0.5425147264290452  0.7491125446710121  0.6303191880314938   T   T   T
  0.5429019295109407  0.2490686725481257  0.3683383448478640   T   T   T
  0.5428998951414090  0.7490735036581194  0.3683508387697973   T   T   T
  0.6173383989403157 -0.0019782655682600  0.6299354706220720   T   T   T
  0.6173400210913406  0.4980367449487190  0.6299322828169687   T   T   T
  0.6176840146755699 -0.0020940871739851  0.3689722832314521   T   T   T
  0.6176870241870192  0.4979260364658291  0.3689748198269804   T   T   T
  0.6918097886560519  0.2469880361422158  0.6298712899494915   T   T   T
  0.6918310992995262  0.7469840447074424  0.6298557275307499   T   T   T
  0.6921212710825146  0.2468845705628733  0.3693873899779617   T   T   T
  0.6921423098298006  0.7468824217142354  0.3693982716670609   T   T   T
  0.7661468722493665 -0.0039380879452200  0.6298130531849218   T   T   T
  0.7661485759810446  0.4963902457247812  0.6298301761002052   T   T   T
  0.7664303943249273 -0.0039458431355679  0.3698052648279234   T   T   T
  0.7664334102404196  0.4963704337052280  0.3697928717062237   T   T   T
  0.8403413497129151  0.2458269830679186  0.6305924649580611   T   T   T
  0.8403362221236360  0.7458703458631929  0.6295130978601334   T   T   T
  0.8406105225627349  0.2458105391580278  0.3693324198396671   T   T   T
  0.8406050814070202  0.7458488760320344  0.3703979643107111   T   T   T
  0.9137963570504162  0.0242046830592714  0.6283371682911261   T   T   T
  0.9138048816219603  0.4671096314016956  0.6283170129597770   T   T   T
  0.9140659892407073  0.0242450883102095  0.3718560426594419   T   T   T
  0.9140608385231571  0.4671450186500284  0.3718764123564469   T   T   T
 
  0.00000000E+00  0.00000000E+00  0.00000000E+00
  0.00000000E+00  0.00000000E+00  0.00000000E+00
  0.00000000E+00  0.00000000E+00  0.00000000E+00
  0.00000000E+00  0.00000000E+00  0.00000000E+00
  0.00000000E+00  0.00000000E+00  0.00000000E+00
  0.00000000E+00  0.00000000E+00  0.00000000E+00
  0.00000000E+00  0.00000000E+00  0.00000000E+00
  0.00000000E+00  0.00000000E+00  0.00000000E+00
  0.00000000E+00  0.00000000E+00  0.00000000E+00
  0.00000000E+00  0.00000000E+00  0.00000000E+00
  0.00000000E+00  0.00000000E+00  0.00000000E+00
  0.00000000E+00  0.00000000E+00  0.00000000E+00
  0.00000000E+00  0.00000000E+00  0.00000000E+00
  0.00000000E+00  0.00000000E+00  0.00000000E+00
  0.00000000E+00  0.00000000E+00  0.00000000E+00
  0.00000000E+00  0.00000000E+00  0.00000000E+00
  0.00000000E+00  0.00000000E+00  0.00000000E+00
  0.00000000E+00  0.00000000E+00  0.00000000E+00
  0.00000000E+00  0.00000000E+00  0.00000000E+00
  0.00000000E+00  0.00000000E+00  0.00000000E+00
  0.00000000E+00  0.00000000E+00  0.00000000E+00
  0.00000000E+00  0.00000000E+00  0.00000000E+00
  0.00000000E+00  0.00000000E+00  0.00000000E+00
  0.00000000E+00  0.00000000E+00  0.00000000E+00
  0.00000000E+00  0.00000000E+00  0.00000000E+00
  0.00000000E+00  0.00000000E+00  0.00000000E+00
  0.00000000E+00  0.00000000E+00  0.00000000E+00
  0.00000000E+00  0.00000000E+00  0.00000000E+00
  0.00000000E+00  0.00000000E+00  0.00000000E+00
  0.00000000E+00  0.00000000E+00  0.00000000E+00
  0.00000000E+00  0.00000000E+00  0.00000000E+00
  0.00000000E+00  0.00000000E+00  0.00000000E+00
  0.00000000E+00  0.00000000E+00  0.00000000E+00
  0.00000000E+00  0.00000000E+00  0.00000000E+00
  0.00000000E+00  0.00000000E+00  0.00000000E+00
  0.00000000E+00  0.00000000E+00  0.00000000E+00
  0.00000000E+00  0.00000000E+00  0.00000000E+00
  0.00000000E+00  0.00000000E+00  0.00000000E+00
  0.00000000E+00  0.00000000E+00  0.00000000E+00
  0.00000000E+00  0.00000000E+00  0.00000000E+00
  0.00000000E+00  0.00000000E+00  0.00000000E+00
  0.00000000E+00  0.00000000E+00  0.00000000E+00
  0.00000000E+00  0.00000000E+00  0.00000000E+00
  0.00000000E+00  0.00000000E+00  0.00000000E+00
  0.00000000E+00  0.00000000E+00  0.00000000E+00
  0.00000000E+00  0.00000000E+00  0.00000000E+00
  0.00000000E+00  0.00000000E+00  0.00000000E+00
  0.00000000E+00  0.00000000E+00  0.00000000E+00
  0.00000000E+00  0.00000000E+00  0.00000000E+00
  0.00000000E+00  0.00000000E+00  0.00000000E+00
  0.00000000E+00  0.00000000E+00  0.00000000E+00
  0.00000000E+00  0.00000000E+00  0.00000000E+00
  0.00000000E+00  0.00000000E+00  0.00000000E+00
  0.00000000E+00  0.00000000E+00  0.00000000E+00
  0.00000000E+00  0.00000000E+00  0.00000000E+00
  0.00000000E+00  0.00000000E+00  0.00000000E+00
  0.00000000E+00  0.00000000E+00  0.00000000E+00
  0.00000000E+00  0.00000000E+00  0.00000000E+00
  0.00000000E+00  0.00000000E+00  0.00000000E+00
  0.00000000E+00  0.00000000E+00  0.00000000E+00
  0.00000000E+00  0.00000000E+00  0.00000000E+00
  0.00000000E+00  0.00000000E+00  0.00000000E+00
  0.00000000E+00  0.00000000E+00  0.00000000E+00
  0.00000000E+00  0.00000000E+00  0.00000000E+00
  0.00000000E+00  0.00000000E+00  0.00000000E+00
  0.00000000E+00  0.00000000E+00  0.00000000E+00
  0.00000000E+00  0.00000000E+00  0.00000000E+00
  0.00000000E+00  0.00000000E+00  0.00000000E+00
  0.00000000E+00  0.00000000E+00  0.00000000E+00
  0.00000000E+00  0.00000000E+00  0.00000000E+00
  0.00000000E+00  0.00000000E+00  0.00000000E+00
  0.00000000E+00  0.00000000E+00  0.00000000E+00
  0.00000000E+00  0.00000000E+00  0.00000000E+00
  0.00000000E+00  0.00000000E+00  0.00000000E+00
  0.00000000E+00  0.00000000E+00  0.00000000E+00
  0.00000000E+00  0.00000000E+00  0.00000000E+00
  0.00000000E+00  0.00000000E+00  0.00000000E+00
  0.00000000E+00  0.00000000E+00  0.00000000E+00
  0.00000000E+00  0.00000000E+00  0.00000000E+00
  0.00000000E+00  0.00000000E+00  0.00000000E+00
  0.00000000E+00  0.00000000E+00  0.00000000E+00
  0.00000000E+00  0.00000000E+00  0.00000000E+00
  0.00000000E+00  0.00000000E+00  0.00000000E+00
  0.00000000E+00  0.00000000E+00  0.00000000E+00
  0.00000000E+00  0.00000000E+00  0.00000000E+00
  0.00000000E+00  0.00000000E+00  0.00000000E+00
  0.00000000E+00  0.00000000E+00  0.00000000E+00
  0.00000000E+00  0.00000000E+00  0.00000000E+00
  0.00000000E+00  0.00000000E+00  0.00000000E+00
  0.00000000E+00  0.00000000E+00  0.00000000E+00
  0.00000000E+00  0.00000000E+00  0.00000000E+00
  0.00000000E+00  0.00000000E+00  0.00000000E+00
  0.00000000E+00  0.00000000E+00  0.00000000E+00
  0.00000000E+00  0.00000000E+00  0.00000000E+00
  0.00000000E+00  0.00000000E+00  0.00000000E+00
  0.00000000E+00  0.00000000E+00  0.00000000E+00
  0.00000000E+00  0.00000000E+00  0.00000000E+00
  0.00000000E+00  0.00000000E+00  0.00000000E+00
  0.00000000E+00  0.00000000E+00  0.00000000E+00
  0.00000000E+00  0.00000000E+00  0.00000000E+00
  0.00000000E+00  0.00000000E+00  0.00000000E+00
  0.00000000E+00  0.00000000E+00  0.00000000E+00
  0.00000000E+00  0.00000000E+00  0.00000000E+00
  0.00000000E+00  0.00000000E+00  0.00000000E+00
  0.00000000E+00  0.00000000E+00  0.00000000E+00
  0.00000000E+00  0.00000000E+00  0.00000000E+00
  0.00000000E+00  0.00000000E+00  0.00000000E+00
  0.00000000E+00  0.00000000E+00  0.00000000E+00
  0.00000000E+00  0.00000000E+00  0.00000000E+00
  0.00000000E+00  0.00000000E+00  0.00000000E+00
  0.00000000E+00  0.00000000E+00  0.00000000E+00
  0.00000000E+00  0.00000000E+00  0.00000000E+00
  0.00000000E+00  0.00000000E+00  0.00000000E+00
  0.00000000E+00  0.00000000E+00  0.00000000E+00
  0.00000000E+00  0.00000000E+00  0.00000000E+00
  0.00000000E+00  0.00000000E+00  0.00000000E+00
  0.00000000E+00  0.00000000E+00  0.00000000E+00
  0.00000000E+00  0.00000000E+00  0.00000000E+00
