CONTCAR1                                
   1.00000000000000     
     5.0399999619000004    0.0000000000000000    0.0000000000000000
     0.0000000000000000   27.0000000000000000    0.0000000000000000
     0.0000000000000000    0.0000000000000000   23.0000000000000000
   N    Si   Mo
    36    18     9
Direct
  0.1949641230377276  0.2819854515926473  0.5581618681761138
  0.1949754670887678  0.2819865814434900  0.4417285858079710
  0.1583841131473036  0.3928498775901105  0.5533012013020331
  0.1583918239370156  0.3928483692515405  0.4465921788566038
  0.3265385542471079  0.3412122816483489  0.3466202168952061
  0.3264879880138346  0.3412148858982601  0.6532701661308334
  0.6637801387379644  0.3389868387756502  0.5545478081760026
  0.6637871146981158  0.3389840708311989  0.4453471783823316
  0.1564970051779728  0.5020361954487252  0.5546242634888081
  0.1564921481333816  0.5020343381393588  0.4452720696807543
  0.3249113296236222  0.4483474224073464  0.3479376712715347
  0.3249129545219227  0.4483487724315711  0.6519567957770783
  0.6596428992069616  0.4480622397222063  0.5543388962028800
  0.6596454177511482  0.4480608727346282  0.4455580029440463
  0.1583677732535385  0.6112194615455662  0.5533007813439605
  0.1583632632455152  0.6112181504225745  0.4465900909338227
  0.3248877718306319  0.5557308022116318  0.3479370402589109
  0.3249143061273287  0.5557338788155017  0.6519577531478952
  0.6596382095272347  0.5560052848820251  0.5543386913709591
  0.6596365914150786  0.5560044099016441  0.4455523005936002
  0.1949404889318694  0.7220797837001512  0.5581602830770614
  0.1949261073078849  0.7220778865952530  0.4417229311912911
  0.3264677785852312  0.6628627694848760  0.3466140271958295
  0.3264900279308592  0.6628658702368981  0.6532735831175053
  0.6637502821529155  0.6650811522668042  0.5545429539227267
  0.6637479432949419  0.6650790755855656  0.4453436060017286
  0.8205340091896649  0.2856574293970223  0.3443859538585306
  0.8204937889724035  0.2856595800104801  0.6555058007218686
  0.8239402808983913  0.3942180174444704  0.3482607203313777
  0.8239258097877719  0.3942221368008090  0.6516363407002109
  0.8241245701319165  0.5020376808918802  0.3474175808446793
  0.8241487088540193  0.5020403048907820  0.6524767774765052
  0.8239049450933266  0.6098579087076665  0.3482546917703216
  0.8239178634866898  0.6098597439798943  0.6516353133988321
  0.8204594092947540  0.7184142320460994  0.3443793916246216
  0.8204792357014350  0.7184162512486553  0.6555056232546786
  0.1161874276150492  0.2944905149358391  0.6278763492442077
  0.1162571112623720  0.2944865440972560  0.3720105404301471
  0.1548849088201400  0.3948518954227280  0.6304151556819595
  0.1549191506817528  0.3948483772833537  0.3694778159057390
  0.6585384429762465  0.3369867736092925  0.6328952187461947
  0.6585804875419503  0.3369816890249473  0.3670005584090110
  0.1554327840014551  0.5020439848398102  0.6307251285208850
  0.1554111513711923  0.5020408817454571  0.3691696748125133
  0.6572060957017586  0.4478039890748748  0.6306582377887500
  0.6571982311744774  0.4478013336643919  0.3692386337221004
  0.1548797782804963  0.6092316802762039  0.6304181567507997
  0.1548483199105646  0.6092307088440098  0.3694757249066764
  0.6572151038617237  0.5562748126790061  0.6306598500019208
  0.6571872312295144  0.5562726282078209  0.3692297449763507
  0.1162070869621570  0.7095919971965955  0.6278800457648258
  0.1161832282392990  0.7095901611860916  0.3720029272769804
  0.6585288554426518  0.6670955732829746  0.6328918007719372
  0.6585073268287275  0.6670927231663232  0.3669936626335229
  0.9880566345867353  0.3365958706968452  0.4999466754706079
  0.4622390150592475  0.2908429170647624  0.4999479019835965
  0.9946575002801631  0.4479699608221608  0.4999474864448006
  0.5004785628215375  0.3939738276667172  0.4999468418424137
  0.9946437578528682  0.5560984525042835  0.4999458986576812
  0.4923757610213680  0.5020333790360795  0.4999467457601979
  0.9880145628321645  0.6674654221299984  0.4999441856074686
  0.5004616131364903  0.6100910564635063  0.4999438430350043
  0.4621807181717599  0.7132236340973448  0.4999420826245660
 
  0.00000000E+00  0.00000000E+00  0.00000000E+00
  0.00000000E+00  0.00000000E+00  0.00000000E+00
  0.00000000E+00  0.00000000E+00  0.00000000E+00
  0.00000000E+00  0.00000000E+00  0.00000000E+00
  0.00000000E+00  0.00000000E+00  0.00000000E+00
  0.00000000E+00  0.00000000E+00  0.00000000E+00
  0.00000000E+00  0.00000000E+00  0.00000000E+00
  0.00000000E+00  0.00000000E+00  0.00000000E+00
  0.00000000E+00  0.00000000E+00  0.00000000E+00
  0.00000000E+00  0.00000000E+00  0.00000000E+00
  0.00000000E+00  0.00000000E+00  0.00000000E+00
  0.00000000E+00  0.00000000E+00  0.00000000E+00
  0.00000000E+00  0.00000000E+00  0.00000000E+00
  0.00000000E+00  0.00000000E+00  0.00000000E+00
  0.00000000E+00  0.00000000E+00  0.00000000E+00
  0.00000000E+00  0.00000000E+00  0.00000000E+00
  0.00000000E+00  0.00000000E+00  0.00000000E+00
  0.00000000E+00  0.00000000E+00  0.00000000E+00
  0.00000000E+00  0.00000000E+00  0.00000000E+00
  0.00000000E+00  0.00000000E+00  0.00000000E+00
  0.00000000E+00  0.00000000E+00  0.00000000E+00
  0.00000000E+00  0.00000000E+00  0.00000000E+00
  0.00000000E+00  0.00000000E+00  0.00000000E+00
  0.00000000E+00  0.00000000E+00  0.00000000E+00
  0.00000000E+00  0.00000000E+00  0.00000000E+00
  0.00000000E+00  0.00000000E+00  0.00000000E+00
  0.00000000E+00  0.00000000E+00  0.00000000E+00
  0.00000000E+00  0.00000000E+00  0.00000000E+00
  0.00000000E+00  0.00000000E+00  0.00000000E+00
  0.00000000E+00  0.00000000E+00  0.00000000E+00
  0.00000000E+00  0.00000000E+00  0.00000000E+00
  0.00000000E+00  0.00000000E+00  0.00000000E+00
  0.00000000E+00  0.00000000E+00  0.00000000E+00
  0.00000000E+00  0.00000000E+00  0.00000000E+00
  0.00000000E+00  0.00000000E+00  0.00000000E+00
  0.00000000E+00  0.00000000E+00  0.00000000E+00
  0.00000000E+00  0.00000000E+00  0.00000000E+00
  0.00000000E+00  0.00000000E+00  0.00000000E+00
  0.00000000E+00  0.00000000E+00  0.00000000E+00
  0.00000000E+00  0.00000000E+00  0.00000000E+00
  0.00000000E+00  0.00000000E+00  0.00000000E+00
  0.00000000E+00  0.00000000E+00  0.00000000E+00
  0.00000000E+00  0.00000000E+00  0.00000000E+00
  0.00000000E+00  0.00000000E+00  0.00000000E+00
  0.00000000E+00  0.00000000E+00  0.00000000E+00
  0.00000000E+00  0.00000000E+00  0.00000000E+00
  0.00000000E+00  0.00000000E+00  0.00000000E+00
  0.00000000E+00  0.00000000E+00  0.00000000E+00
  0.00000000E+00  0.00000000E+00  0.00000000E+00
  0.00000000E+00  0.00000000E+00  0.00000000E+00
  0.00000000E+00  0.00000000E+00  0.00000000E+00
  0.00000000E+00  0.00000000E+00  0.00000000E+00
  0.00000000E+00  0.00000000E+00  0.00000000E+00
  0.00000000E+00  0.00000000E+00  0.00000000E+00
  0.00000000E+00  0.00000000E+00  0.00000000E+00
  0.00000000E+00  0.00000000E+00  0.00000000E+00
  0.00000000E+00  0.00000000E+00  0.00000000E+00
  0.00000000E+00  0.00000000E+00  0.00000000E+00
  0.00000000E+00  0.00000000E+00  0.00000000E+00
  0.00000000E+00  0.00000000E+00  0.00000000E+00
  0.00000000E+00  0.00000000E+00  0.00000000E+00
  0.00000000E+00  0.00000000E+00  0.00000000E+00
  0.00000000E+00  0.00000000E+00  0.00000000E+00
