CONTCAR1                                
   1.00000000000000     
     5.0399999619000004    0.0000000000000000    0.0000000000000000
     0.0000000000000000   40.0000000000000000    0.0000000000000000
     0.0000000000000000    0.0000000000000000   23.0000000000000000
   Mo   N    Si
    18    72    36
Direct
  0.9621070799397271  0.2939483139088783  0.4999470872044732
  0.0004636471383025  0.3635994316555028  0.4999487161752670
  0.4882295318453718  0.3248488018757663  0.4999474262145930
  0.9915680269723300  0.4363141651320100  0.4999496997912589
  0.4935397466787551  0.4000334144042391  0.4999490632295893
  0.9908398927448909  0.5092859681341770  0.4999475749544712
  0.4919058926030050  0.4728978884179959  0.4999480923780898
  0.9906262327797087  0.5820112619821495  0.4999454636676446
  0.4905990175955703  0.5456229875215814  0.4999456641574215
  0.9905781405706016  0.6547559917576302  0.4999464786889038
  0.4906104268164164  0.6183695117076222  0.4999457901969207
  0.9918579366127599  0.7274775628198231  0.4999451706302516
  0.4908031884334146  0.6910933581462638  0.4999457200630578
  0.9935253934903873  0.8003426553768364  0.4999436370642251
  0.4915466064480931  0.7640596313568594  0.4999444564975558
  0.9881847418155685  0.8755271703158884  0.4999444361100138
  0.5004404909402208  0.8367759406950264  0.4999428704403466
  0.4620593343064912  0.9064233603326340  0.4999436629799993
  0.1640329673937421  0.3264565402685538  0.5545209747171068
  0.1640338053635004  0.3264563505841649  0.4453722583372985
  0.3207685724486748  0.2905273653567885  0.3443562251897107
  0.3207518964761381  0.2905271366350942  0.6555344423910644
  0.6953341484482014  0.2879655068336298  0.5582304697528769
  0.6953255159586843  0.2879659609135020  0.4416630272261933
  0.1593456249333181  0.4000624204149777  0.5544658392195519
  0.1593462114277323  0.4000618285016750  0.4454332602134081
  0.3242772458668897  0.3637915472398909  0.3482034852575978
  0.3242699294578942  0.3637920955471030  0.6516911742399421
  0.6581381112277396  0.3628582415419090  0.5532740887080380
  0.6581347839218692  0.3628578336330894  0.4466245121837191
  0.1558521359097328  0.4728709936767048  0.5547021582688599
  0.1558513533977585  0.4728698340181592  0.4451930681997567
  0.3247180111062048  0.4365672310218357  0.3471417051097318
  0.3247244702740743  0.4365682628666158  0.6527569566485101
  0.6560361479009393  0.4364851884994822  0.5547302549250422
  0.6560377896985187  0.4364844939116964  0.4451665570028910
  0.1553387504912612  0.5456461881708878  0.5548480301814841
  0.1553319785782317  0.5456460376822789  0.4450426677148733
  0.3249094380626658  0.5092896094746310  0.3469198964059011
  0.3249233173896532  0.5092909566245162  0.6529738495916717
  0.6558684435630771  0.5092994628728033  0.5548565244279878
  0.6558689010143963  0.5092991405713725  0.4450330023172346
  0.1553738424608354  0.6183786139054347  0.5548343967233519
  0.1553696867752119  0.6183780724546789  0.4450550583988963
  0.3250904691018444  0.5820054444000297  0.3468654477057528
  0.3251177630472693  0.5820066725922188  0.6530238981831876
  0.6553914103335677  0.5820032551935189  0.5548271336991122
  0.6553834390162397  0.5820027438064749  0.4450575712743200
  0.1558285132699849  0.6910794306049778  0.5548603815083101
  0.1558250719478096  0.6910788659032029  0.4450287020953139
  0.3250335835907086  0.6546998135754103  0.3468283832945142
  0.3250351362338508  0.6547007147989558  0.6530617596142982
  0.6553140386071644  0.6547329729684659  0.5548473282071414
  0.6553171116624903  0.6547327875067251  0.4450432109001072
  0.1560125389694539  0.7638899080408105  0.5547206017003651
  0.1560082563119800  0.7638891141073662  0.4451690444316369
  0.3249257154817132  0.7273835181859762  0.3469493603915628
  0.3249391962125412  0.7273853868268727  0.6529412175441163
  0.6558153353196268  0.7275060705301268  0.5547069021190740
  0.6558104372600100  0.7275058697656157  0.4451815786028823
  0.1581064892485543  0.8375179764059807  0.5532683390257581
  0.1581056307998816  0.8375180302391387  0.4466198907429996
  0.3252039641133043  0.7999888352454139  0.3478391297851057
  0.3252239861207861  0.7999901641777072  0.6520511995047890
  0.6593497189894619  0.8003132690431229  0.5544571579661899
  0.6593428386217624  0.8003128475236627  0.4454299453204849
  0.1953018031892951  0.9124098579642537  0.5582256692405583
  0.1952818967488850  0.9124093817423590  0.4416625889869979
  0.3266651948999360  0.8723317303209255  0.3466566851043453
  0.3266917734687174  0.8723309588360900  0.6532320029299765
  0.6639971347468622  0.8739158690445870  0.5545188243026226
  0.6639982006398518  0.8739167395195321  0.4453686254859083
  0.8267622985627227  0.3280444569775737  0.3466562318857816
  0.8267535218908494  0.3280444097371378  0.6532381924793381
  0.8252338035455897  0.4003847299617687  0.3478293600700774
  0.8252299606993178  0.4003857992577589  0.6520709869450380
  0.8249554387496574  0.4729936388602681  0.3469606819378991
  0.8249587852832037  0.4729961584052276  0.6529332997781916
  0.8250333644009046  0.5456803832697470  0.3468310857126294
  0.8250483932329713  0.5456831266325961  0.6530576925072914
  0.8250900606068179  0.6183756597090788  0.3468621915645893
  0.8250996748493120  0.6183768729851905  0.6530266624169958
  0.8248966827543895  0.6910867720217601  0.3469097444200190
  0.8249063931066396  0.6910882230970536  0.6529820254423285
  0.8247094259249365  0.7638092649441951  0.3471372112594092
  0.8247218258316638  0.7638113532140256  0.6527515339247569
  0.8242410020983076  0.8365822385830562  0.3481945440828674
  0.8242630162372859  0.8365827466027983  0.6516939938919928
  0.8206440025393710  0.9098475989773733  0.3443545787004581
  0.8206766280618800  0.9098455216663835  0.6555317858482060
  0.1587709895983180  0.3251515589911267  0.6328666554377147
  0.1587826290091942  0.3251517896480448  0.3670236347394998
  0.6164701640772946  0.2964852666348552  0.6279024643815029
  0.6164864674526597  0.2964844098111856  0.3719888616778230
  0.1574807283091482  0.3999398139188165  0.6307567667389952
  0.1574799936856275  0.3999375654448992  0.3691428494229247
  0.6551549830627426  0.3642593060555724  0.6303927388086901
  0.6551678948875378  0.3642587392818613  0.3695051830214214
  0.1564418094573741  0.4729072799868914  0.6308399631923440
  0.1564463615890823  0.4729041743195970  0.3690559610655593
  0.6561181479444811  0.4367009194119535  0.6308424614917739
  0.6561097346920052  0.4366993032491671  0.3690564689431152
  0.1564865358802563  0.5456515677773417  0.6309574020675250
  0.1564691346389299  0.5456493548369232  0.3689382675794094
  0.6564262519504256  0.5093423581836571  0.6309700450422931
  0.6564093531838104  0.5093388263620778  0.3689198513287658
  0.1565266441912584  0.6183541432443903  0.6309544875179673
  0.1565146891489334  0.6183540889381812  0.3689348704758137
  0.6565491863847094  0.5820309613850291  0.6309408795440831
  0.6565224958164330  0.5820288319782978  0.3689408546891523
  0.1564102084503883  0.6910430550619350  0.6309785754753313
  0.1563894452405336  0.6910405835905863  0.3689143151177800
  0.6564670268125020  0.6547289034683372  0.6309555886555819
  0.6564633397952393  0.6547270405259021  0.3689381807777058
  0.1560941066390437  0.7636754525851029  0.6308266753953590
  0.1560752680044955  0.7636730023861368  0.3690633706191286
  0.6564301233430859  0.7274720254226684  0.6308513771425269
  0.6564109820438728  0.7274712529853076  0.3690351556184773
  0.1551367513174801  0.8361152956253719  0.6303850781096015
  0.1551189682048771  0.8361154236763788  0.3695007547240132
  0.6574905266533990  0.8004405818754704  0.6307481017561065
  0.6574709651981506  0.8004375501323814  0.3691379585061547
  0.1163622464287025  0.9038917531396725  0.6279015458150674
  0.1163278025829550  0.9038934827397217  0.3719872111187018
  0.6587195894828023  0.8752150162881508  0.6328650755793437
  0.6586911912345467  0.8752176915022051  0.3670211460906058
 
  0.00000000E+00  0.00000000E+00  0.00000000E+00
  0.00000000E+00  0.00000000E+00  0.00000000E+00
  0.00000000E+00  0.00000000E+00  0.00000000E+00
  0.00000000E+00  0.00000000E+00  0.00000000E+00
  0.00000000E+00  0.00000000E+00  0.00000000E+00
  0.00000000E+00  0.00000000E+00  0.00000000E+00
  0.00000000E+00  0.00000000E+00  0.00000000E+00
  0.00000000E+00  0.00000000E+00  0.00000000E+00
  0.00000000E+00  0.00000000E+00  0.00000000E+00
  0.00000000E+00  0.00000000E+00  0.00000000E+00
  0.00000000E+00  0.00000000E+00  0.00000000E+00
  0.00000000E+00  0.00000000E+00  0.00000000E+00
  0.00000000E+00  0.00000000E+00  0.00000000E+00
  0.00000000E+00  0.00000000E+00  0.00000000E+00
  0.00000000E+00  0.00000000E+00  0.00000000E+00
  0.00000000E+00  0.00000000E+00  0.00000000E+00
  0.00000000E+00  0.00000000E+00  0.00000000E+00
  0.00000000E+00  0.00000000E+00  0.00000000E+00
  0.00000000E+00  0.00000000E+00  0.00000000E+00
  0.00000000E+00  0.00000000E+00  0.00000000E+00
  0.00000000E+00  0.00000000E+00  0.00000000E+00
  0.00000000E+00  0.00000000E+00  0.00000000E+00
  0.00000000E+00  0.00000000E+00  0.00000000E+00
  0.00000000E+00  0.00000000E+00  0.00000000E+00
  0.00000000E+00  0.00000000E+00  0.00000000E+00
  0.00000000E+00  0.00000000E+00  0.00000000E+00
  0.00000000E+00  0.00000000E+00  0.00000000E+00
  0.00000000E+00  0.00000000E+00  0.00000000E+00
  0.00000000E+00  0.00000000E+00  0.00000000E+00
  0.00000000E+00  0.00000000E+00  0.00000000E+00
  0.00000000E+00  0.00000000E+00  0.00000000E+00
  0.00000000E+00  0.00000000E+00  0.00000000E+00
  0.00000000E+00  0.00000000E+00  0.00000000E+00
  0.00000000E+00  0.00000000E+00  0.00000000E+00
  0.00000000E+00  0.00000000E+00  0.00000000E+00
  0.00000000E+00  0.00000000E+00  0.00000000E+00
  0.00000000E+00  0.00000000E+00  0.00000000E+00
  0.00000000E+00  0.00000000E+00  0.00000000E+00
  0.00000000E+00  0.00000000E+00  0.00000000E+00
  0.00000000E+00  0.00000000E+00  0.00000000E+00
  0.00000000E+00  0.00000000E+00  0.00000000E+00
  0.00000000E+00  0.00000000E+00  0.00000000E+00
  0.00000000E+00  0.00000000E+00  0.00000000E+00
  0.00000000E+00  0.00000000E+00  0.00000000E+00
  0.00000000E+00  0.00000000E+00  0.00000000E+00
  0.00000000E+00  0.00000000E+00  0.00000000E+00
  0.00000000E+00  0.00000000E+00  0.00000000E+00
  0.00000000E+00  0.00000000E+00  0.00000000E+00
  0.00000000E+00  0.00000000E+00  0.00000000E+00
  0.00000000E+00  0.00000000E+00  0.00000000E+00
  0.00000000E+00  0.00000000E+00  0.00000000E+00
  0.00000000E+00  0.00000000E+00  0.00000000E+00
  0.00000000E+00  0.00000000E+00  0.00000000E+00
  0.00000000E+00  0.00000000E+00  0.00000000E+00
  0.00000000E+00  0.00000000E+00  0.00000000E+00
  0.00000000E+00  0.00000000E+00  0.00000000E+00
  0.00000000E+00  0.00000000E+00  0.00000000E+00
  0.00000000E+00  0.00000000E+00  0.00000000E+00
  0.00000000E+00  0.00000000E+00  0.00000000E+00
  0.00000000E+00  0.00000000E+00  0.00000000E+00
  0.00000000E+00  0.00000000E+00  0.00000000E+00
  0.00000000E+00  0.00000000E+00  0.00000000E+00
  0.00000000E+00  0.00000000E+00  0.00000000E+00
  0.00000000E+00  0.00000000E+00  0.00000000E+00
  0.00000000E+00  0.00000000E+00  0.00000000E+00
  0.00000000E+00  0.00000000E+00  0.00000000E+00
  0.00000000E+00  0.00000000E+00  0.00000000E+00
  0.00000000E+00  0.00000000E+00  0.00000000E+00
  0.00000000E+00  0.00000000E+00  0.00000000E+00
  0.00000000E+00  0.00000000E+00  0.00000000E+00
  0.00000000E+00  0.00000000E+00  0.00000000E+00
  0.00000000E+00  0.00000000E+00  0.00000000E+00
  0.00000000E+00  0.00000000E+00  0.00000000E+00
  0.00000000E+00  0.00000000E+00  0.00000000E+00
  0.00000000E+00  0.00000000E+00  0.00000000E+00
  0.00000000E+00  0.00000000E+00  0.00000000E+00
  0.00000000E+00  0.00000000E+00  0.00000000E+00
  0.00000000E+00  0.00000000E+00  0.00000000E+00
  0.00000000E+00  0.00000000E+00  0.00000000E+00
  0.00000000E+00  0.00000000E+00  0.00000000E+00
  0.00000000E+00  0.00000000E+00  0.00000000E+00
  0.00000000E+00  0.00000000E+00  0.00000000E+00
  0.00000000E+00  0.00000000E+00  0.00000000E+00
  0.00000000E+00  0.00000000E+00  0.00000000E+00
  0.00000000E+00  0.00000000E+00  0.00000000E+00
  0.00000000E+00  0.00000000E+00  0.00000000E+00
  0.00000000E+00  0.00000000E+00  0.00000000E+00
  0.00000000E+00  0.00000000E+00  0.00000000E+00
  0.00000000E+00  0.00000000E+00  0.00000000E+00
  0.00000000E+00  0.00000000E+00  0.00000000E+00
  0.00000000E+00  0.00000000E+00  0.00000000E+00
  0.00000000E+00  0.00000000E+00  0.00000000E+00
  0.00000000E+00  0.00000000E+00  0.00000000E+00
  0.00000000E+00  0.00000000E+00  0.00000000E+00
  0.00000000E+00  0.00000000E+00  0.00000000E+00
  0.00000000E+00  0.00000000E+00  0.00000000E+00
  0.00000000E+00  0.00000000E+00  0.00000000E+00
  0.00000000E+00  0.00000000E+00  0.00000000E+00
  0.00000000E+00  0.00000000E+00  0.00000000E+00
  0.00000000E+00  0.00000000E+00  0.00000000E+00
  0.00000000E+00  0.00000000E+00  0.00000000E+00
  0.00000000E+00  0.00000000E+00  0.00000000E+00
  0.00000000E+00  0.00000000E+00  0.00000000E+00
  0.00000000E+00  0.00000000E+00  0.00000000E+00
  0.00000000E+00  0.00000000E+00  0.00000000E+00
  0.00000000E+00  0.00000000E+00  0.00000000E+00
  0.00000000E+00  0.00000000E+00  0.00000000E+00
  0.00000000E+00  0.00000000E+00  0.00000000E+00
  0.00000000E+00  0.00000000E+00  0.00000000E+00
  0.00000000E+00  0.00000000E+00  0.00000000E+00
  0.00000000E+00  0.00000000E+00  0.00000000E+00
  0.00000000E+00  0.00000000E+00  0.00000000E+00
  0.00000000E+00  0.00000000E+00  0.00000000E+00
  0.00000000E+00  0.00000000E+00  0.00000000E+00
  0.00000000E+00  0.00000000E+00  0.00000000E+00
  0.00000000E+00  0.00000000E+00  0.00000000E+00
  0.00000000E+00  0.00000000E+00  0.00000000E+00
  0.00000000E+00  0.00000000E+00  0.00000000E+00
  0.00000000E+00  0.00000000E+00  0.00000000E+00
  0.00000000E+00  0.00000000E+00  0.00000000E+00
  0.00000000E+00  0.00000000E+00  0.00000000E+00
  0.00000000E+00  0.00000000E+00  0.00000000E+00
  0.00000000E+00  0.00000000E+00  0.00000000E+00
  0.00000000E+00  0.00000000E+00  0.00000000E+00
  0.00000000E+00  0.00000000E+00  0.00000000E+00
  0.00000000E+00  0.00000000E+00  0.00000000E+00
