 CONTCAR1                               
   1.00000000000000     
    34.0000000000000000    0.0000000000000000    0.0000000000000000
     0.0000000000000000    5.8200001717000003    0.0000000000000000
     0.0000000000000000    0.0000000000000000   23.0000000000000000
   Mo   N    Si
    16    70    32
Selective dynamics
Direct
  0.3738840859274746  0.0000000000000000  0.4997375870697267   T   T   T
  0.3729503425217874  0.5000000000000000  0.4997517550591853   T   T   T
  0.4455012761745789  0.2495642545712889  0.4996840070951352   T   T   T
  0.4455012761745789  0.7504357654287129  0.4996840070951352   T   T   T
  0.5192057588109853  0.0000000000000000  0.4996231392855529   T   T   T
  0.5199743412389407  0.5000000000000000  0.4996170334948556   T   T   T
  0.5937770240750023  0.2495884034994293  0.4995752145546556   T   T   T
  0.5937770240750023  0.7504116165005725  0.4995752145546556   T   T   T
  0.6679423863104454  0.0000000000000000  0.4995802003388677   T   T   T
  0.6678799934800449  0.5000000000000000  0.4995749840643320   T   T   T
  0.7421604579004204  0.2496122276941216  0.4996561684271330   T   T   T
  0.7421604579004204  0.7503877923058795  0.4996561684271330   T   T   T
  0.8167721706727065  0.0000000000000000  0.4998411204578588   F   F   F
  0.8167594751133009  0.5000000000000000  0.4998413962674633   F   F   F
  0.8934314613702909  0.2427708801257182  0.5000133813190502   F   F   F
  0.8934314613702909  0.7572291398742834  0.5000133813190502   F   F   F
  0.3952543301389311  0.2476698876855542  0.5533725726573394   T   T   T
  0.3952543301389311  0.7523301323144470  0.5533725726573394   T   T   T
  0.3952255998242444  0.2476894432690186  0.4461106226724298   T   T   T
  0.3952255998242444  0.7523105767309832  0.4461106226724298   T   T   T
  0.4140137634905530  0.0000000000000000  0.3490379592651017   T   T   T
  0.4264176774871277  0.5000000000000000  0.3450298491562473   T   T   T
  0.4141204826694181  0.0000000000000000  0.6503847364861840   T   T   T
  0.4265293685204700  0.5000000000000000  0.6543926726767648   T   T   T
  0.4691371870018273  0.0000000000000000  0.5541332310490227   T   T   T
  0.4707513974241669  0.5000000000000000  0.5532676920831344   T   T   T
  0.4690774274647208  0.0000000000000000  0.4452041291230686   T   T   T
  0.4707154643840334  0.5000000000000000  0.4460357936098566   T   T   T
  0.4949685454299658  0.2430931188528662  0.3480382704949512   T   T   T
  0.4949685454299658  0.7569069011471354  0.3480382704949512   T   T   T
  0.4950447960719668  0.2430575812564308  0.6512618223438825   T   T   T
  0.4950447960719668  0.7569424387435705  0.6512618223438825   T   T   T
  0.5443466911443359  0.2488335777687019  0.5536452538595970   T   T   T
  0.5443466911443359  0.7511664422312998  0.5536452538595970   T   T   T
  0.5443263895442860  0.2488535557621775  0.4455604808730970   T   T   T
  0.5443263895442860  0.7511464642378243  0.4455604808730970   T   T   T
  0.5695321384194926  0.0000000000000000  0.3473287115303297   T   T   T
  0.5684749145110569  0.5000000000000000  0.3478859310022382   T   T   T
  0.5695538744194901  0.0000000000000000  0.6518637926788960   T   T   T
  0.5685047272884212  0.5000000000000000  0.6513223993178436   T   T   T
  0.6185352029781441  0.0000000000000000  0.5537380487725719   T   T   T
  0.6183783617379220  0.5000000000000000  0.5537015167672326   T   T   T
  0.6185439112528541  0.0000000000000000  0.4454199350296069   T   T   T
  0.6183879897483601  0.5000000000000000  0.4454554694674457   T   T   T
  0.6430664585446665  0.2507834239175686  0.3474534073286707   T   T   T
  0.6430664585446665  0.7492165960824331  0.3474534073286707   T   T   T
  0.6430182937659179  0.2507539209533702  0.6517075664350098   T   T   T
  0.6430182937659179  0.7492460990466313  0.6517075664350098   T   T   T
  0.6925662728014560  0.2502109031519781  0.5536947678655234   T   T   T
  0.6925662728014560  0.7497891168480237  0.5536947678655234   T   T   T
  0.6926003489299108  0.2502002027328331  0.4454913660420214   T   T   T
  0.6926003489299108  0.7497998172671688  0.4454913660420214   T   T   T
  0.7167870774638747  0.0000000000000000  0.3475517520025667   T   T   T
  0.7173468778544342  0.5000000000000000  0.3477822609705025   T   T   T
  0.7166398752954259  0.0000000000000000  0.6516970200703512   T   T   T
  0.7172138223565359  0.5000000000000000  0.6514717342390700   T   T   T
  0.7666322270243302  0.0000000000000000  0.5536136119660469   T   T   T
  0.7670868017266694  0.5000000000000000  0.5533964766078883   T   T   T
  0.7667149281383411  0.0000000000000000  0.4457977466532587   T   T   T
  0.7671651749510209  0.5000000000000000  0.4460127869859813   T   T   T
  0.7908324755677332  0.2477250634760495  0.3483168185290553   T   T   T
  0.7908324755677332  0.7522749565239520  0.3483168185290553   T   T   T
  0.7906149185230397  0.2476778796969039  0.6512096090293367   T   T   T
  0.7906149185230397  0.7523221403030975  0.6512096090293367   T   T   T
  0.8415043701306999  0.2477961258229939  0.5530421270754928   F   F   F
  0.8415043701306999  0.7522038941770077  0.5530421270754928   F   F   F
  0.8415957008443087  0.2477933512756110  0.4467369027533223   F   F   F
  0.8415957008443087  0.7522066687243907  0.4467369027533223   F   F   F
  0.8664050582798950  0.0000000000000000  0.3474599018262339   F   F   F
  0.8618514723370865  0.5000000000000000  0.3483490121999111   F   F   F
  0.8661783244795487  0.0000000000000000  0.6523998843520857   F   F   F
  0.8615908270934440  0.5000000000000000  0.6515378651603569   F   F   F
  0.9153581026750146  0.0000000000000000  0.5568329444550528   F   F   F
  0.9130066063374329  0.5000000000000000  0.5517051678956690   F   F   F
  0.9154532314809529  0.0000000000000000  0.4432606598311395   F   F   F
  0.9131039920032435  0.5000000000000000  0.4484611526592204   F   F   F
  0.9361788580895478  0.2759360752148083  0.3440914321113553   F   F   F
  0.9361788580895478  0.7240639447851933  0.3440914321113553   F   F   F
  0.9359493731408577  0.2759260202899725  0.6561218321338345   F   F   F
  0.9359493731408577  0.7240739997100292  0.6561218321338345   F   F   F
  0.3555732025196222  0.5000000000000000  0.6298231800460645   T   T   T
  0.3554820209504852  0.5000000000000000  0.3698031872284224   T   T   T
  0.9680852010709629  0.3910315222631766  0.6852303711477674   F   F   F
  0.9680852010709629  0.6089684377368201  0.6852303711477674   F   F   F
  0.9681462917935164  0.3910336399508196  0.3146223728790432   F   F   F
  0.9681462917935164  0.6089663200491771  0.3146223728790432   F   F   F
  0.3934298882478649  0.2881432582152878  0.6299747366535379   T   T   T
  0.3934298882478649  0.7118567617847136  0.6299747366535379   T   T   T
  0.3933332845223755  0.2880784791187577  0.3695096609918428   T   T   T
  0.3933332845223755  0.7119215408812508  0.3695096609918428   T   T   T
  0.4664337409971791  0.0000000000000000  0.6313768028205944   T   T   T
  0.4728871099332934  0.5000000000000000  0.6302660379508093   T   T   T
  0.4663690350849242  0.0000000000000000  0.3679586856993377   T   T   T
  0.4728129911516118  0.5000000000000000  0.3690497096053319   T   T   T
  0.5442780969079902  0.2463571928086002  0.6298194234310628   T   T   T
  0.5442780969079902  0.7536428271914016  0.6298194234310628   T   T   T
  0.5442346710145234  0.2463428948956639  0.3694012826194987   T   T   T
  0.5442346710145234  0.7536571251043376  0.3694012826194987   T   T   T
  0.6187135769085632  0.0000000000000000  0.6297593351942523   T   T   T
  0.6181341932530237  0.5000000000000000  0.6297741902520800   T   T   T
  0.6187282678777229  0.0000000000000000  0.3693780374342255   T   T   T
  0.6181414703323348  0.5000000000000000  0.3693791087286291   T   T   T
  0.6924301125367012  0.2506177779403654  0.6297541195866349   T   T   T
  0.6924301125367012  0.7493822420596367  0.6297541195866349   T   T   T
  0.6925066636174940  0.2506014304936953  0.3694307029611598   T   T   T
  0.6925066636174940  0.7493985895063061  0.3694307029611598   T   T   T
  0.7659810994189128  0.0000000000000000  0.6296310326316094   T   T   T
  0.7667982108896158  0.5000000000000000  0.6297325183458067   T   T   T
  0.7661347024711316  0.0000000000000000  0.3697675215864776   T   T   T
  0.7669320868176257  0.5000000000000000  0.3696669093165720   T   T   T
  0.8403013937974251  0.2448968383858841  0.6299632367380568   F   F   F
  0.8403013937974251  0.7551031816141176  0.6299632367380568   F   F   F
  0.8405094326459732  0.2449307792832727  0.3698025848623416   F   F   F
  0.8405094326459732  0.7550692407167290  0.3698025848623416   F   F   F
  0.9189457861391617  0.0000000000000000  0.6327920904827806   F   F   F
  0.9096694625698234  0.5000000000000000  0.6248886119015538   F   F   F
  0.9191234515035163  0.0000000000000000  0.3673047708709731   F   F   F
  0.9098674911821121  0.5000000000000000  0.3752694759116437   F   F   F
 
  0.00000000E+00  0.00000000E+00  0.00000000E+00
  0.00000000E+00  0.00000000E+00  0.00000000E+00
  0.00000000E+00  0.00000000E+00  0.00000000E+00
  0.00000000E+00  0.00000000E+00  0.00000000E+00
  0.00000000E+00  0.00000000E+00  0.00000000E+00
  0.00000000E+00  0.00000000E+00  0.00000000E+00
  0.00000000E+00  0.00000000E+00  0.00000000E+00
  0.00000000E+00  0.00000000E+00  0.00000000E+00
  0.00000000E+00  0.00000000E+00  0.00000000E+00
  0.00000000E+00  0.00000000E+00  0.00000000E+00
  0.00000000E+00  0.00000000E+00  0.00000000E+00
  0.00000000E+00  0.00000000E+00  0.00000000E+00
  0.00000000E+00  0.00000000E+00  0.00000000E+00
  0.00000000E+00  0.00000000E+00  0.00000000E+00
  0.00000000E+00  0.00000000E+00  0.00000000E+00
  0.00000000E+00  0.00000000E+00  0.00000000E+00
  0.00000000E+00  0.00000000E+00  0.00000000E+00
  0.00000000E+00  0.00000000E+00  0.00000000E+00
  0.00000000E+00  0.00000000E+00  0.00000000E+00
  0.00000000E+00  0.00000000E+00  0.00000000E+00
  0.00000000E+00  0.00000000E+00  0.00000000E+00
  0.00000000E+00  0.00000000E+00  0.00000000E+00
  0.00000000E+00  0.00000000E+00  0.00000000E+00
  0.00000000E+00  0.00000000E+00  0.00000000E+00
  0.00000000E+00  0.00000000E+00  0.00000000E+00
  0.00000000E+00  0.00000000E+00  0.00000000E+00
  0.00000000E+00  0.00000000E+00  0.00000000E+00
  0.00000000E+00  0.00000000E+00  0.00000000E+00
  0.00000000E+00  0.00000000E+00  0.00000000E+00
  0.00000000E+00  0.00000000E+00  0.00000000E+00
  0.00000000E+00  0.00000000E+00  0.00000000E+00
  0.00000000E+00  0.00000000E+00  0.00000000E+00
  0.00000000E+00  0.00000000E+00  0.00000000E+00
  0.00000000E+00  0.00000000E+00  0.00000000E+00
  0.00000000E+00  0.00000000E+00  0.00000000E+00
  0.00000000E+00  0.00000000E+00  0.00000000E+00
  0.00000000E+00  0.00000000E+00  0.00000000E+00
  0.00000000E+00  0.00000000E+00  0.00000000E+00
  0.00000000E+00  0.00000000E+00  0.00000000E+00
  0.00000000E+00  0.00000000E+00  0.00000000E+00
  0.00000000E+00  0.00000000E+00  0.00000000E+00
  0.00000000E+00  0.00000000E+00  0.00000000E+00
  0.00000000E+00  0.00000000E+00  0.00000000E+00
  0.00000000E+00  0.00000000E+00  0.00000000E+00
  0.00000000E+00  0.00000000E+00  0.00000000E+00
  0.00000000E+00  0.00000000E+00  0.00000000E+00
  0.00000000E+00  0.00000000E+00  0.00000000E+00
  0.00000000E+00  0.00000000E+00  0.00000000E+00
  0.00000000E+00  0.00000000E+00  0.00000000E+00
  0.00000000E+00  0.00000000E+00  0.00000000E+00
  0.00000000E+00  0.00000000E+00  0.00000000E+00
  0.00000000E+00  0.00000000E+00  0.00000000E+00
  0.00000000E+00  0.00000000E+00  0.00000000E+00
  0.00000000E+00  0.00000000E+00  0.00000000E+00
  0.00000000E+00  0.00000000E+00  0.00000000E+00
  0.00000000E+00  0.00000000E+00  0.00000000E+00
  0.00000000E+00  0.00000000E+00  0.00000000E+00
  0.00000000E+00  0.00000000E+00  0.00000000E+00
  0.00000000E+00  0.00000000E+00  0.00000000E+00
  0.00000000E+00  0.00000000E+00  0.00000000E+00
  0.00000000E+00  0.00000000E+00  0.00000000E+00
  0.00000000E+00  0.00000000E+00  0.00000000E+00
  0.00000000E+00  0.00000000E+00  0.00000000E+00
  0.00000000E+00  0.00000000E+00  0.00000000E+00
  0.00000000E+00  0.00000000E+00  0.00000000E+00
  0.00000000E+00  0.00000000E+00  0.00000000E+00
  0.00000000E+00  0.00000000E+00  0.00000000E+00
  0.00000000E+00  0.00000000E+00  0.00000000E+00
  0.00000000E+00  0.00000000E+00  0.00000000E+00
  0.00000000E+00  0.00000000E+00  0.00000000E+00
  0.00000000E+00  0.00000000E+00  0.00000000E+00
  0.00000000E+00  0.00000000E+00  0.00000000E+00
  0.00000000E+00  0.00000000E+00  0.00000000E+00
  0.00000000E+00  0.00000000E+00  0.00000000E+00
  0.00000000E+00  0.00000000E+00  0.00000000E+00
  0.00000000E+00  0.00000000E+00  0.00000000E+00
  0.00000000E+00  0.00000000E+00  0.00000000E+00
  0.00000000E+00  0.00000000E+00  0.00000000E+00
  0.00000000E+00  0.00000000E+00  0.00000000E+00
  0.00000000E+00  0.00000000E+00  0.00000000E+00
  0.00000000E+00  0.00000000E+00  0.00000000E+00
  0.00000000E+00  0.00000000E+00  0.00000000E+00
  0.00000000E+00  0.00000000E+00  0.00000000E+00
  0.00000000E+00  0.00000000E+00  0.00000000E+00
  0.00000000E+00  0.00000000E+00  0.00000000E+00
  0.00000000E+00  0.00000000E+00  0.00000000E+00
  0.00000000E+00  0.00000000E+00  0.00000000E+00
  0.00000000E+00  0.00000000E+00  0.00000000E+00
  0.00000000E+00  0.00000000E+00  0.00000000E+00
  0.00000000E+00  0.00000000E+00  0.00000000E+00
  0.00000000E+00  0.00000000E+00  0.00000000E+00
  0.00000000E+00  0.00000000E+00  0.00000000E+00
  0.00000000E+00  0.00000000E+00  0.00000000E+00
  0.00000000E+00  0.00000000E+00  0.00000000E+00
  0.00000000E+00  0.00000000E+00  0.00000000E+00
  0.00000000E+00  0.00000000E+00  0.00000000E+00
  0.00000000E+00  0.00000000E+00  0.00000000E+00
  0.00000000E+00  0.00000000E+00  0.00000000E+00
  0.00000000E+00  0.00000000E+00  0.00000000E+00
  0.00000000E+00  0.00000000E+00  0.00000000E+00
  0.00000000E+00  0.00000000E+00  0.00000000E+00
  0.00000000E+00  0.00000000E+00  0.00000000E+00
  0.00000000E+00  0.00000000E+00  0.00000000E+00
  0.00000000E+00  0.00000000E+00  0.00000000E+00
  0.00000000E+00  0.00000000E+00  0.00000000E+00
  0.00000000E+00  0.00000000E+00  0.00000000E+00
  0.00000000E+00  0.00000000E+00  0.00000000E+00
  0.00000000E+00  0.00000000E+00  0.00000000E+00
  0.00000000E+00  0.00000000E+00  0.00000000E+00
  0.00000000E+00  0.00000000E+00  0.00000000E+00
  0.00000000E+00  0.00000000E+00  0.00000000E+00
  0.00000000E+00  0.00000000E+00  0.00000000E+00
  0.00000000E+00  0.00000000E+00  0.00000000E+00
  0.00000000E+00  0.00000000E+00  0.00000000E+00
  0.00000000E+00  0.00000000E+00  0.00000000E+00
  0.00000000E+00  0.00000000E+00  0.00000000E+00
  0.00000000E+00  0.00000000E+00  0.00000000E+00
  0.00000000E+00  0.00000000E+00  0.00000000E+00
