 CONTCAR1                               
   1.00000000000000     
    34.0000000000000000    0.0000000000000000    0.0000000000000000
     0.0000000000000000    8.7300004959000006    0.0000000000000000
     0.0000000000000000    0.0000000000000000   23.0000000000000000
   Mo   N    Si
    24   103    48
Selective dynamics
Direct
  0.3757584031830825  0.0028399434127485  0.4991114295647457   T   T   T
  0.3754621374604482  0.3320759514854342  0.5110264217616829   T   T   T
  0.3754574099791492  0.6663753128834417  0.5136991007535041   T   T   T
  0.4484950408791507  0.1664979189913484  0.4989726846318216   T   T   T
  0.4480622526647347  0.4991181545375291  0.4975359382054880   T   T   T
  0.4482314200662191  0.8342406600161010  0.4994091199110878   T   T   T
  0.5219467653686929  0.9999494589118387  0.5000312966925782   T   T   T
  0.5217625483312238  0.3336043461841739  0.4987867652382705   T   T   T
  0.5215848471412631  0.6665523849109117  0.4989510944612501   T   T   T
  0.5957199208038652  0.1667286388609155  0.4997232007664377   T   T   T
  0.5956087400955130  0.5001006172871816  0.4991716219968681   T   T   T
  0.5956898573560269  0.8331908603355755  0.4997990834942775   T   T   T
  0.6697674747552242 -0.0000116527888501  0.4999472745545153   T   T   T
  0.6697193315788126  0.3334032389972887  0.4998060502574954   T   T   T
  0.6697525560446169  0.6666032103493169  0.4998146556428432   T   T   T
  0.7440127062653142  0.1668148892416446  0.4999088257056698   T   T   T
  0.7440181565435163  0.4998498936100162  0.4999950578911119   T   T   T
  0.7440242154584356  0.8333230042607573  0.4999579741875692   T   T   T
  0.8186073299999990  0.0003462199999973  0.4994097590000024   F   F   F
  0.8187517280000023  0.3333150540000034  0.4999405399999972   F   F   F
  0.8186085640000016  0.6662969220000008  0.5004766710000013   F   F   F
  0.8949177120000016  0.1683903899999990  0.4972147730000032   F   F   F
  0.8949169830000017  0.4982311690000003  0.5027087249999980   F   F   F
  0.8943918450000012  0.8333183860000020  0.4999700210000029   F   F   F
  0.4014641363924411  0.1565750216375450  0.5528535768253652   T   T   T
  0.4046561330128517  0.4926680110092195  0.5539604105070258   T   T   T
  0.4007583230618446  0.8513783158958106  0.5527595214000363   T   T   T
  0.3969770390703211  0.1704329741143445  0.4485101390196521   T   T   T
  0.3867621813670699  0.4989365446523912  0.4499804322830609   T   T   T
  0.3968660774811053  0.8322111516084060  0.4494175410144726   T   T   T
  0.4282169093863225 -0.0001343511810397  0.3471556135338775   T   T   T
  0.4181439056591238  0.3264138982279182  0.3512709872748462   T   T   T
  0.4182207751469386  0.6746380720487598  0.3516494352664674   T   T   T
  0.4154705705602402  0.0001397048197788  0.6513280008685840   T   T   T
  0.4245160614447019  0.3391399978047727  0.6548098935465380   T   T   T
  0.4231455860702580  0.6585754556396619  0.6539866567969850   T   T   T
  0.4720572501988506  0.0002761563161786  0.5539640931492602   T   T   T
  0.4727719666148714  0.3347301442103254  0.5530364095385663   T   T   T
  0.4723460249665047  0.6648234753522463  0.5532065937115243   T   T   T
  0.4733430346352932  0.9994963715618089  0.4454970897946081   T   T   T
  0.4719449094421488  0.3326997134508313  0.4444011910369112   T   T   T
  0.4716749942317603  0.6678323407073229  0.4447630377640613   T   T   T
  0.4975906629391017  0.1698283279788892  0.3470449193918985   T   T   T
  0.4943826256112860  0.5002593192473671  0.3468220988498261   T   T   T
  0.4976561441746367  0.8301007995238345  0.3470957215604694   T   T   T
  0.4952939355295922  0.1640286371901814  0.6511404102696562   T   T   T
  0.4975696847729382  0.5001466076202832  0.6511926933928167   T   T   T
  0.4948288260512145  0.8347758059651779  0.6511932843943815   T   T   T
  0.5461483233960788  0.1673057038905496  0.5536966825758707   T   T   T
  0.5463124034232261  0.5001367211183322  0.5530039558300368   T   T   T
  0.5460332988799239  0.8325555131968541  0.5538188922646486   T   T   T
  0.5465756702285600  0.1664120012954021  0.4453913259647435   T   T   T
  0.5459985765825719  0.5002727816688693  0.4445479512442171   T   T   T
  0.5465355458821781  0.8334215645211707  0.4454882091412326   T   T   T
  0.5707678950267376 -0.0000000215019510  0.3476225160223703   T   T   T
  0.5706435808167279  0.3350791266596876  0.3470593179815305   T   T   T
  0.5706900803843906  0.6650143604663800  0.3470786858184161   T   T   T
  0.5699926606374318  0.9995838145072999  0.6517504088199911   T   T   T
  0.5701607847143205  0.3321351084838842  0.6513461262102338   T   T   T
  0.5701662884056383  0.6677571289519796  0.6514722737124554   T   T   T
  0.6202059690854924 -0.0000450308381102  0.5540611221332613   T   T   T
  0.6201680338286921  0.3336284406950545  0.5537941416468808   T   T   T
  0.6202044175246433  0.6663602712992964  0.5538306420852637   T   T   T
  0.6204168161595438 -0.0000760518493984  0.4456776008863589   T   T   T
  0.6203411488430681  0.3333094058213861  0.4453585869653514   T   T   T
  0.6203697592749595  0.6668151211770158  0.4453797343272201   T   T   T
  0.6445600180769481  0.1670142936069057  0.3475745688858054   T   T   T
  0.6448551655057276  0.5000213900380013  0.3474180024061872   T   T   T
  0.6446225947599530  0.8331428146518455  0.3475931608858394   T   T   T
  0.6443418153545160  0.1663442442747273  0.6519543902018298   T   T   T
  0.6441677563316730  0.4998740223715508  0.6518837280014446   T   T   T
  0.6443666310636132  0.8333904649979419  0.6519943245712138   T   T   T
  0.6943797284929293  0.1668104146299326  0.5540707809434378   T   T   T
  0.6943230989949196  0.4998881328886332  0.5540702165556562   T   T   T
  0.6943970299484856  0.8332374845151584  0.5541021722491312   T   T   T
  0.6944075926006077  0.1667121762518321  0.4457405296341808   T   T   T
  0.6944882966407818  0.4999417286099049  0.4457332284034247   T   T   T
  0.6944652737533722  0.8333877329332979  0.4457491465117437   T   T   T
  0.7184291866571684  0.0002920859981228  0.3477110780584147   T   T   T
  0.7185682920685702  0.3331596982116075  0.3478252272233724   T   T   T
  0.7185862122199925  0.6667825547973794  0.3478851043439481   T   T   T
  0.7183972914573841  0.9999641212806032  0.6519580569932266   T   T   T
  0.7183522878539688  0.3334463599265963  0.6520165884465579   T   T   T
  0.7182791982995214  0.6662370317649348  0.6521412394557754   T   T   T
  0.7688034612920857  0.0001673224964373  0.5537402855927691   T   T   T
  0.7687740686098654  0.3333307873332526  0.5539644952512482   T   T   T
  0.7686215608628495  0.6664004917208768  0.5541785178527067   T   T   T
  0.7686374203834061  0.0002521416673574  0.4457381977757399   T   T   T
  0.7688017889070927  0.3333417909717710  0.4459690848596993   T   T   T
  0.7688330716800185  0.6664811906526371  0.4461691870532203   T   T   T
  0.7924403580000003  0.1668991949999992  0.3477258679999977   F   F   F
  0.7920809350000013  0.4997521319999976  0.3485803189999999   F   F   F
  0.7918958659999973  0.8338193649999965  0.3481265360000023   F   F   F
  0.7920615809999987  0.1669017489999973  0.6512714469999992   F   F   F
  0.7924372729999973  0.4997758370000014  0.6521520200000026   F   F   F
  0.7918833559999996  0.8328482670000028  0.6517527620000010   F   F   F
  0.8437314869999994  0.1662134890000004  0.5524910219999981   F   F   F
  0.8434264240000005  0.4992424129999975  0.5546842239999989   F   F   F
  0.8432040499999971  0.8342123600000022  0.5534373570000000   F   F   F
  0.8434354560000017  0.1673776849999982  0.4452039060000033   F   F   F
  0.8437378830000029  0.5004141869999970  0.4474010050000032   F   F   F
  0.8432168399999966  0.8324396510000014  0.4464683949999966   F   F   F
  0.8660135269999998  0.9978138680000015  0.3463631300000003   F   F   F
  0.8661235920000010  0.3364354420000026  0.3469893830000004   F   F   F
  0.8642563539999983  0.6667564449999972  0.3483143679999969   F   F   F
  0.8642337459999965  0.9998748100000014  0.6516193719999990   F   F   F
  0.8661041260000033  0.3301647329999966  0.6529160790000006   F   F   F
  0.8659944529999990  0.6688152010000010  0.6535493189999997   F   F   F
  0.9183411320000019  0.0021640499999975  0.5505992229999990   F   F   F
  0.9166093709999998  0.3248715949999976  0.5552934560000011   F   F   F
  0.9170204050000024  0.6757266629999990  0.5565031719999993   F   F   F
  0.9170354959999969  0.9909249099999968  0.4434414320000002   F   F   F
  0.9166181789999968  0.3417720030000027  0.4446382109999973   F   F   F
  0.9183636830000026  0.6644691010000017  0.4493654500000019   F   F   F
  0.9388230830000026  0.1677357900000018  0.3408632900000015   F   F   F
  0.9382123390000032  0.5163285860000002  0.3407312269999991   F   F   F
  0.9381025539999968  0.8177413239999964  0.3401961530000008   F   F   F
  0.9382008380000002  0.1503061780000010  0.6592302740000022   F   F   F
  0.9388014290000015  0.4989028379999993  0.6590827030000028   F   F   F
  0.9380883050000008  0.8488822839999983  0.6597688089999991   F   F   F
  0.3565774957381544  0.3247830919848659  0.6123538152820051   T   T   T
  0.3585032611661563  0.6721401275923894  0.6038332358855690   T   T   T
  0.3569312264551937  0.0006750231082466  0.3713207508496832   T   T   T
  0.9645133300000026  0.1163042499999989  0.6916944250000014   F   F   F
  0.9642846719999980  0.8837216539999986  0.6923786250000035   F   F   F
  0.9642983600000008  0.7828876969999996  0.3075880379999987   F   F   F
  0.9645287009999990  0.5503624130000020  0.3082598809999979   F   F   F
  0.3953065472218907  0.1927841825704433  0.6274475528360941   T   T   T
  0.3896592620269424  0.4931444982234012  0.6267424027988432   T   T   T
  0.3958064003479794  0.8101369075322488  0.6264847394833070   T   T   T
  0.3950515903105119  0.1387785398144162  0.3725869901728629   T   T   T
  0.3962730273730962  0.5007955962923419  0.3749651382062175   T   T   T
  0.3949454593795179  0.8617845096176695  0.3732768397760611   T   T   T
  0.4675507560350053  0.0000773885594249  0.6313026980833065   T   T   T
  0.4717578050226116  0.3353500087476738  0.6311572701759783   T   T   T
  0.4710877079849995  0.6634010691308273  0.6311981847165222   T   T   T
  0.4750591563200627 -0.0001237038925077  0.3689575270786700   T   T   T
  0.4696356933510932  0.3305306475963233  0.3679429437534692   T   T   T
  0.4696547928848917  0.6698480211324183  0.3682571665315890   T   T   T
  0.5448303745573908  0.1651874871587496  0.6298917080321147   T   T   T
  0.5461275362046815  0.5001040333806619  0.6292031232381905   T   T   T
  0.5445866923270162  0.8341528712891406  0.6300137672514993   T   T   T
  0.5465087136425317  0.1685626167509861  0.3692870831384055   T   T   T
  0.5447138116143315  0.5001205273675036  0.3684227636941964   T   T   T
  0.5465482095820680  0.8314762909195939  0.3693661828768739   T   T   T
  0.6194842208304641  0.9997498820774284  0.6300792321655893   T   T   T
  0.6195678924755829  0.3326863066855453  0.6298551990409975   T   T   T
  0.6195724987478644  0.6671583179049002  0.6298979800314107   T   T   T
  0.6200810542035994  0.0000496441425324  0.3696598267054013   T   T   T
  0.6199765768119598  0.3342092881535195  0.3693893543950630   T   T   T
  0.6200187957359969  0.6659051454096993  0.3693914453627684   T   T   T
  0.6937359518638125  0.1666108835852917  0.6300357853932387   T   T   T
  0.6935857488225676  0.4998484411581940  0.6300643525951146   T   T   T
  0.6937473476272005  0.8331975009603321  0.6300788108275275   T   T   T
  0.6938646996224368  0.1668513530430934  0.3697835794384495   T   T   T
  0.6940755736557119  0.4999696019140099  0.3697974532473117   T   T   T
  0.6939404759787672  0.8333861852278726  0.3697966670301913   T   T   T
  0.7676345529611948  0.9998802642480898  0.6296280180505055   T   T   T
  0.7676875016785125  0.3340281254172430  0.6298847006397809   T   T   T
  0.7676217895134737  0.6656738646940618  0.6301172013054941   T   T   T
  0.7676960596895279  0.0009734299658107  0.3698251214603218   T   T   T
  0.7678095388944154  0.3327072592760011  0.3700606322633514   T   T   T
  0.7677437652136839  0.6667475120416632  0.3702997978977179   T   T   T
  0.8410139639999983  0.1696199120000017  0.6285724230000014   F   F   F
  0.8422840899999997  0.4996610800000028  0.6315221369999975   F   F   F
  0.8408998600000004  0.8297220070000009  0.6294451170000031   F   F   F
  0.8422910470000033  0.1669476570000015  0.3683593579999993   F   F   F
  0.8410330379999991  0.4969668680000012  0.3713167849999977   F   F   F
  0.8409131550000026  0.8369255790000025  0.3704634959999993   F   F   F
  0.9100824240000023  0.9993747039999974  0.6208688070000008   F   F   F
  0.9162541560000008  0.3517900350000005  0.6292670289999975   F   F   F
  0.9162962300000004  0.6473510849999968  0.6300453520000033   F   F   F
  0.9163113199999984  0.0193125099999989  0.3698907109999965   F   F   F
  0.9162725560000027  0.3148402369999985  0.3706645139999978   F   F   F
  0.9100983000000014  0.6672375970000033  0.3790923410000033   F   F   F
 
  0.00000000E+00  0.00000000E+00  0.00000000E+00
  0.00000000E+00  0.00000000E+00  0.00000000E+00
  0.00000000E+00  0.00000000E+00  0.00000000E+00
  0.00000000E+00  0.00000000E+00  0.00000000E+00
  0.00000000E+00  0.00000000E+00  0.00000000E+00
  0.00000000E+00  0.00000000E+00  0.00000000E+00
  0.00000000E+00  0.00000000E+00  0.00000000E+00
  0.00000000E+00  0.00000000E+00  0.00000000E+00
  0.00000000E+00  0.00000000E+00  0.00000000E+00
  0.00000000E+00  0.00000000E+00  0.00000000E+00
  0.00000000E+00  0.00000000E+00  0.00000000E+00
  0.00000000E+00  0.00000000E+00  0.00000000E+00
  0.00000000E+00  0.00000000E+00  0.00000000E+00
  0.00000000E+00  0.00000000E+00  0.00000000E+00
  0.00000000E+00  0.00000000E+00  0.00000000E+00
  0.00000000E+00  0.00000000E+00  0.00000000E+00
  0.00000000E+00  0.00000000E+00  0.00000000E+00
  0.00000000E+00  0.00000000E+00  0.00000000E+00
  0.00000000E+00  0.00000000E+00  0.00000000E+00
  0.00000000E+00  0.00000000E+00  0.00000000E+00
  0.00000000E+00  0.00000000E+00  0.00000000E+00
  0.00000000E+00  0.00000000E+00  0.00000000E+00
  0.00000000E+00  0.00000000E+00  0.00000000E+00
  0.00000000E+00  0.00000000E+00  0.00000000E+00
  0.00000000E+00  0.00000000E+00  0.00000000E+00
  0.00000000E+00  0.00000000E+00  0.00000000E+00
  0.00000000E+00  0.00000000E+00  0.00000000E+00
  0.00000000E+00  0.00000000E+00  0.00000000E+00
  0.00000000E+00  0.00000000E+00  0.00000000E+00
  0.00000000E+00  0.00000000E+00  0.00000000E+00
  0.00000000E+00  0.00000000E+00  0.00000000E+00
  0.00000000E+00  0.00000000E+00  0.00000000E+00
  0.00000000E+00  0.00000000E+00  0.00000000E+00
  0.00000000E+00  0.00000000E+00  0.00000000E+00
  0.00000000E+00  0.00000000E+00  0.00000000E+00
  0.00000000E+00  0.00000000E+00  0.00000000E+00
  0.00000000E+00  0.00000000E+00  0.00000000E+00
  0.00000000E+00  0.00000000E+00  0.00000000E+00
  0.00000000E+00  0.00000000E+00  0.00000000E+00
  0.00000000E+00  0.00000000E+00  0.00000000E+00
  0.00000000E+00  0.00000000E+00  0.00000000E+00
  0.00000000E+00  0.00000000E+00  0.00000000E+00
  0.00000000E+00  0.00000000E+00  0.00000000E+00
  0.00000000E+00  0.00000000E+00  0.00000000E+00
  0.00000000E+00  0.00000000E+00  0.00000000E+00
  0.00000000E+00  0.00000000E+00  0.00000000E+00
  0.00000000E+00  0.00000000E+00  0.00000000E+00
  0.00000000E+00  0.00000000E+00  0.00000000E+00
  0.00000000E+00  0.00000000E+00  0.00000000E+00
  0.00000000E+00  0.00000000E+00  0.00000000E+00
  0.00000000E+00  0.00000000E+00  0.00000000E+00
  0.00000000E+00  0.00000000E+00  0.00000000E+00
  0.00000000E+00  0.00000000E+00  0.00000000E+00
  0.00000000E+00  0.00000000E+00  0.00000000E+00
  0.00000000E+00  0.00000000E+00  0.00000000E+00
  0.00000000E+00  0.00000000E+00  0.00000000E+00
  0.00000000E+00  0.00000000E+00  0.00000000E+00
  0.00000000E+00  0.00000000E+00  0.00000000E+00
  0.00000000E+00  0.00000000E+00  0.00000000E+00
  0.00000000E+00  0.00000000E+00  0.00000000E+00
  0.00000000E+00  0.00000000E+00  0.00000000E+00
  0.00000000E+00  0.00000000E+00  0.00000000E+00
  0.00000000E+00  0.00000000E+00  0.00000000E+00
  0.00000000E+00  0.00000000E+00  0.00000000E+00
  0.00000000E+00  0.00000000E+00  0.00000000E+00
  0.00000000E+00  0.00000000E+00  0.00000000E+00
  0.00000000E+00  0.00000000E+00  0.00000000E+00
  0.00000000E+00  0.00000000E+00  0.00000000E+00
  0.00000000E+00  0.00000000E+00  0.00000000E+00
  0.00000000E+00  0.00000000E+00  0.00000000E+00
  0.00000000E+00  0.00000000E+00  0.00000000E+00
  0.00000000E+00  0.00000000E+00  0.00000000E+00
  0.00000000E+00  0.00000000E+00  0.00000000E+00
  0.00000000E+00  0.00000000E+00  0.00000000E+00
  0.00000000E+00  0.00000000E+00  0.00000000E+00
  0.00000000E+00  0.00000000E+00  0.00000000E+00
  0.00000000E+00  0.00000000E+00  0.00000000E+00
  0.00000000E+00  0.00000000E+00  0.00000000E+00
  0.00000000E+00  0.00000000E+00  0.00000000E+00
  0.00000000E+00  0.00000000E+00  0.00000000E+00
  0.00000000E+00  0.00000000E+00  0.00000000E+00
  0.00000000E+00  0.00000000E+00  0.00000000E+00
  0.00000000E+00  0.00000000E+00  0.00000000E+00
  0.00000000E+00  0.00000000E+00  0.00000000E+00
  0.00000000E+00  0.00000000E+00  0.00000000E+00
  0.00000000E+00  0.00000000E+00  0.00000000E+00
  0.00000000E+00  0.00000000E+00  0.00000000E+00
  0.00000000E+00  0.00000000E+00  0.00000000E+00
  0.00000000E+00  0.00000000E+00  0.00000000E+00
  0.00000000E+00  0.00000000E+00  0.00000000E+00
  0.00000000E+00  0.00000000E+00  0.00000000E+00
  0.00000000E+00  0.00000000E+00  0.00000000E+00
  0.00000000E+00  0.00000000E+00  0.00000000E+00
  0.00000000E+00  0.00000000E+00  0.00000000E+00
  0.00000000E+00  0.00000000E+00  0.00000000E+00
  0.00000000E+00  0.00000000E+00  0.00000000E+00
  0.00000000E+00  0.00000000E+00  0.00000000E+00
  0.00000000E+00  0.00000000E+00  0.00000000E+00
  0.00000000E+00  0.00000000E+00  0.00000000E+00
  0.00000000E+00  0.00000000E+00  0.00000000E+00
  0.00000000E+00  0.00000000E+00  0.00000000E+00
  0.00000000E+00  0.00000000E+00  0.00000000E+00
  0.00000000E+00  0.00000000E+00  0.00000000E+00
  0.00000000E+00  0.00000000E+00  0.00000000E+00
  0.00000000E+00  0.00000000E+00  0.00000000E+00
  0.00000000E+00  0.00000000E+00  0.00000000E+00
  0.00000000E+00  0.00000000E+00  0.00000000E+00
  0.00000000E+00  0.00000000E+00  0.00000000E+00
  0.00000000E+00  0.00000000E+00  0.00000000E+00
  0.00000000E+00  0.00000000E+00  0.00000000E+00
  0.00000000E+00  0.00000000E+00  0.00000000E+00
  0.00000000E+00  0.00000000E+00  0.00000000E+00
  0.00000000E+00  0.00000000E+00  0.00000000E+00
  0.00000000E+00  0.00000000E+00  0.00000000E+00
  0.00000000E+00  0.00000000E+00  0.00000000E+00
  0.00000000E+00  0.00000000E+00  0.00000000E+00
  0.00000000E+00  0.00000000E+00  0.00000000E+00
  0.00000000E+00  0.00000000E+00  0.00000000E+00
  0.00000000E+00  0.00000000E+00  0.00000000E+00
  0.00000000E+00  0.00000000E+00  0.00000000E+00
  0.00000000E+00  0.00000000E+00  0.00000000E+00
  0.00000000E+00  0.00000000E+00  0.00000000E+00
  0.00000000E+00  0.00000000E+00  0.00000000E+00
  0.00000000E+00  0.00000000E+00  0.00000000E+00
  0.00000000E+00  0.00000000E+00  0.00000000E+00
  0.00000000E+00  0.00000000E+00  0.00000000E+00
  0.00000000E+00  0.00000000E+00  0.00000000E+00
  0.00000000E+00  0.00000000E+00  0.00000000E+00
  0.00000000E+00  0.00000000E+00  0.00000000E+00
  0.00000000E+00  0.00000000E+00  0.00000000E+00
  0.00000000E+00  0.00000000E+00  0.00000000E+00
  0.00000000E+00  0.00000000E+00  0.00000000E+00
  0.00000000E+00  0.00000000E+00  0.00000000E+00
  0.00000000E+00  0.00000000E+00  0.00000000E+00
  0.00000000E+00  0.00000000E+00  0.00000000E+00
  0.00000000E+00  0.00000000E+00  0.00000000E+00
  0.00000000E+00  0.00000000E+00  0.00000000E+00
  0.00000000E+00  0.00000000E+00  0.00000000E+00
  0.00000000E+00  0.00000000E+00  0.00000000E+00
  0.00000000E+00  0.00000000E+00  0.00000000E+00
  0.00000000E+00  0.00000000E+00  0.00000000E+00
  0.00000000E+00  0.00000000E+00  0.00000000E+00
  0.00000000E+00  0.00000000E+00  0.00000000E+00
  0.00000000E+00  0.00000000E+00  0.00000000E+00
  0.00000000E+00  0.00000000E+00  0.00000000E+00
  0.00000000E+00  0.00000000E+00  0.00000000E+00
  0.00000000E+00  0.00000000E+00  0.00000000E+00
  0.00000000E+00  0.00000000E+00  0.00000000E+00
  0.00000000E+00  0.00000000E+00  0.00000000E+00
  0.00000000E+00  0.00000000E+00  0.00000000E+00
  0.00000000E+00  0.00000000E+00  0.00000000E+00
  0.00000000E+00  0.00000000E+00  0.00000000E+00
  0.00000000E+00  0.00000000E+00  0.00000000E+00
  0.00000000E+00  0.00000000E+00  0.00000000E+00
  0.00000000E+00  0.00000000E+00  0.00000000E+00
  0.00000000E+00  0.00000000E+00  0.00000000E+00
  0.00000000E+00  0.00000000E+00  0.00000000E+00
  0.00000000E+00  0.00000000E+00  0.00000000E+00
  0.00000000E+00  0.00000000E+00  0.00000000E+00
  0.00000000E+00  0.00000000E+00  0.00000000E+00
  0.00000000E+00  0.00000000E+00  0.00000000E+00
  0.00000000E+00  0.00000000E+00  0.00000000E+00
  0.00000000E+00  0.00000000E+00  0.00000000E+00
  0.00000000E+00  0.00000000E+00  0.00000000E+00
  0.00000000E+00  0.00000000E+00  0.00000000E+00
  0.00000000E+00  0.00000000E+00  0.00000000E+00
  0.00000000E+00  0.00000000E+00  0.00000000E+00
  0.00000000E+00  0.00000000E+00  0.00000000E+00
  0.00000000E+00  0.00000000E+00  0.00000000E+00
  0.00000000E+00  0.00000000E+00  0.00000000E+00
  0.00000000E+00  0.00000000E+00  0.00000000E+00
  0.00000000E+00  0.00000000E+00  0.00000000E+00
  0.00000000E+00  0.00000000E+00  0.00000000E+00
  0.00000000E+00  0.00000000E+00  0.00000000E+00
  0.00000000E+00  0.00000000E+00  0.00000000E+00
