CONTCAR1                                
   1.00000000000000     
    37.0000000000000000    0.0000000000000000    0.0000000000000000
     0.0000000000000000    2.9100000858000001    0.0000000000000000
     0.0000000000000000    0.0000000000000000   23.0000000000000000
   N    Si   Mo
    36    18     9
Direct
  0.1308107279469245  0.0000000000000000  0.5553302026653885
  0.1308083276704576  0.0000000000000000  0.4445783652086409
  0.1577369002824766  0.5000000000000000  0.3477240000980136
  0.1577446581894446  0.5000000000000000  0.6521785869005224
  0.2013552418874826  0.5000000000000000  0.5535518076750319
  0.2013503849658204  0.5000000000000000  0.4463413474712253
  0.2254735282207808  0.0000000000000000  0.3485545687201694
  0.2254783263244786  0.0000000000000000  0.6513307057315955
  0.2701408689416753  0.0000000000000000  0.5538277525651926
  0.2701399701998186  0.0000000000000000  0.4460521067086837
  0.2934354999242464  0.5000000000000000  0.3480540653729581
  0.2934377750208849  0.5000000000000000  0.6518205723385604
  0.3384896087286360  0.5000000000000000  0.5540651142108833
  0.3384894352306251  0.5000000000000000  0.4458182746896544
  0.3615038153575011  0.0000000000000000  0.3478497240741152
  0.3615032429132536  0.0000000000000000  0.6520322360000254
  0.4067031422673793  0.0000000000000000  0.5541163597405410
  0.4067030026585944  0.0000000000000000  0.4457750113135693
  0.4296102340208847  0.5000000000000000  0.3478181774356586
  0.4296092753200186  0.5000000000000000  0.6520747034282520
  0.4748444290884161  0.5000000000000000  0.5540431588033913
  0.4748464156726467  0.5000000000000000  0.4458450034301171
  0.4976865760012411  0.0000000000000000  0.3480610094304387
  0.4976844063738288  0.0000000000000000  0.6518274515319614
  0.5430976265045941  0.0000000000000000  0.5537094459850280
  0.5430983859637766  0.0000000000000000  0.4461806946463080
  0.5656092224928221  0.5000000000000000  0.3487732503950511
  0.5656066659169450  0.5000000000000000  0.6511197786986483
  0.6115519500115901  0.5000000000000000  0.5531408904123903
  0.6115525356328713  0.5000000000000000  0.4467597462250352
  0.6330133527628803  0.0000000000000000  0.3480485768298947
  0.6330131303486149  0.0000000000000000  0.6518554991214592
  0.6771558389684489  0.0000000000000000  0.5544167962224867
  0.6771573129962405  0.0000000000000000  0.4454849151096723
  0.6997902364466900  0.5000000000000000  0.3473681907923663
  0.6997930841118825  0.5000000000000000  0.6525258393936453
  0.1336326646137531  0.0000000000000000  0.6324248449048896
  0.1336252046310291  0.0000000000000000  0.3674757995208753
  0.2027176667674475  0.5000000000000000  0.6299166776892416
  0.2027139138024782  0.5000000000000000  0.3699734715665631
  0.2709123675853736  0.0000000000000000  0.6298959146387695
  0.2709089533528468  0.0000000000000000  0.3699798637163657
  0.3389992621089280  0.5000000000000000  0.6300711780105133
  0.3389960273625858  0.5000000000000000  0.3698070281044481
  0.4071242859431130  0.0000000000000000  0.6301309891437546
  0.4071235044277133  0.0000000000000000  0.3697607727112895
  0.4752395664385688  0.5000000000000000  0.6301114760877751
  0.4752421547906391  0.5000000000000000  0.3697754764995371
  0.5433954756934185  0.0000000000000000  0.6300057319143212
  0.5433980686913304  0.0000000000000000  0.3698837197101166
  0.6117860305526025  0.5000000000000000  0.6304822119513501
  0.6117863835468943  0.5000000000000000  0.3694214556819473
  0.6803864328804284  0.0000000000000000  0.6312812794285542
  0.6803862675399075  0.0000000000000000  0.3686201416913795
  0.1111041677111060  0.5000000000000000  0.4999570555983539
  0.1781372755262448  0.0000000000000000  0.4999472137854258
  0.2471799929977783  0.5000000000000000  0.4999364527225777
  0.3157398968362847  0.0000000000000000  0.4999367167782471
  0.3840136904689348  0.5000000000000000  0.4999434660767426
  0.4521922678291020  0.0000000000000000  0.4999444397401159
  0.5204111038266321  0.5000000000000000  0.4999435948714037
  0.5887716242085039  0.0000000000000000  0.4999479232702512
  0.6590917985015146  0.5000000000000000  0.4999512018085868
 
  0.00000000E+00  0.00000000E+00  0.00000000E+00
  0.00000000E+00  0.00000000E+00  0.00000000E+00
  0.00000000E+00  0.00000000E+00  0.00000000E+00
  0.00000000E+00  0.00000000E+00  0.00000000E+00
  0.00000000E+00  0.00000000E+00  0.00000000E+00
  0.00000000E+00  0.00000000E+00  0.00000000E+00
  0.00000000E+00  0.00000000E+00  0.00000000E+00
  0.00000000E+00  0.00000000E+00  0.00000000E+00
  0.00000000E+00  0.00000000E+00  0.00000000E+00
  0.00000000E+00  0.00000000E+00  0.00000000E+00
  0.00000000E+00  0.00000000E+00  0.00000000E+00
  0.00000000E+00  0.00000000E+00  0.00000000E+00
  0.00000000E+00  0.00000000E+00  0.00000000E+00
  0.00000000E+00  0.00000000E+00  0.00000000E+00
  0.00000000E+00  0.00000000E+00  0.00000000E+00
  0.00000000E+00  0.00000000E+00  0.00000000E+00
  0.00000000E+00  0.00000000E+00  0.00000000E+00
  0.00000000E+00  0.00000000E+00  0.00000000E+00
  0.00000000E+00  0.00000000E+00  0.00000000E+00
  0.00000000E+00  0.00000000E+00  0.00000000E+00
  0.00000000E+00  0.00000000E+00  0.00000000E+00
  0.00000000E+00  0.00000000E+00  0.00000000E+00
  0.00000000E+00  0.00000000E+00  0.00000000E+00
  0.00000000E+00  0.00000000E+00  0.00000000E+00
  0.00000000E+00  0.00000000E+00  0.00000000E+00
  0.00000000E+00  0.00000000E+00  0.00000000E+00
  0.00000000E+00  0.00000000E+00  0.00000000E+00
  0.00000000E+00  0.00000000E+00  0.00000000E+00
  0.00000000E+00  0.00000000E+00  0.00000000E+00
  0.00000000E+00  0.00000000E+00  0.00000000E+00
  0.00000000E+00  0.00000000E+00  0.00000000E+00
  0.00000000E+00  0.00000000E+00  0.00000000E+00
  0.00000000E+00  0.00000000E+00  0.00000000E+00
  0.00000000E+00  0.00000000E+00  0.00000000E+00
  0.00000000E+00  0.00000000E+00  0.00000000E+00
  0.00000000E+00  0.00000000E+00  0.00000000E+00
  0.00000000E+00  0.00000000E+00  0.00000000E+00
  0.00000000E+00  0.00000000E+00  0.00000000E+00
  0.00000000E+00  0.00000000E+00  0.00000000E+00
  0.00000000E+00  0.00000000E+00  0.00000000E+00
  0.00000000E+00  0.00000000E+00  0.00000000E+00
  0.00000000E+00  0.00000000E+00  0.00000000E+00
  0.00000000E+00  0.00000000E+00  0.00000000E+00
  0.00000000E+00  0.00000000E+00  0.00000000E+00
  0.00000000E+00  0.00000000E+00  0.00000000E+00
  0.00000000E+00  0.00000000E+00  0.00000000E+00
  0.00000000E+00  0.00000000E+00  0.00000000E+00
  0.00000000E+00  0.00000000E+00  0.00000000E+00
  0.00000000E+00  0.00000000E+00  0.00000000E+00
  0.00000000E+00  0.00000000E+00  0.00000000E+00
  0.00000000E+00  0.00000000E+00  0.00000000E+00
  0.00000000E+00  0.00000000E+00  0.00000000E+00
  0.00000000E+00  0.00000000E+00  0.00000000E+00
  0.00000000E+00  0.00000000E+00  0.00000000E+00
  0.00000000E+00  0.00000000E+00  0.00000000E+00
  0.00000000E+00  0.00000000E+00  0.00000000E+00
  0.00000000E+00  0.00000000E+00  0.00000000E+00
  0.00000000E+00  0.00000000E+00  0.00000000E+00
  0.00000000E+00  0.00000000E+00  0.00000000E+00
  0.00000000E+00  0.00000000E+00  0.00000000E+00
  0.00000000E+00  0.00000000E+00  0.00000000E+00
  0.00000000E+00  0.00000000E+00  0.00000000E+00
  0.00000000E+00  0.00000000E+00  0.00000000E+00
