 CONTCAR1                               
   1.00000000000000     
    34.0000000000000000    0.0000000000000000    0.0000000000000000
     0.0000000000000000    8.7300004959000006    0.0000000000000000
     0.0000000000000000    0.0000000000000000   23.0000000000000000
   Mo   N    Si
    24   105    48
Selective dynamics
Direct
  0.3771538914731780  0.0031448614874363  0.4904712879522799   T   T   T
  0.3751994590055355  0.3358433527500505  0.4969466411341131   T   T   T
  0.3766911648326202  0.6708364611972821  0.5107551289536756   T   T   T
  0.4501736392815839  0.1660943801201401  0.5003572757613597   T   T   T
  0.4504120544322479  0.5013304690983541  0.4980779994672075   T   T   T
  0.4493365758104461  0.8349233133598416  0.5000551209911839   T   T   T
  0.5227050735180885  0.9997374149545550  0.5001635860138246   T   T   T
  0.5226033684893707  0.3330116855348212  0.4996970981976432   T   T   T
  0.5222594126572414  0.6672153598059779  0.4994648617848402   T   T   T
  0.5960715352573818  0.1665015257482189  0.4999571831943678   T   T   T
  0.5958330893190110  0.5000455655842628  0.4996535745399139   T   T   T
  0.5959383120300001  0.8330324696881776  0.4997709455930250   T   T   T
  0.6698587571365545  0.9998198787321029  0.4998625034546224   T   T   T
  0.6698215726873660  0.3333407900585828  0.4998295240983057   T   T   T
  0.6698140437031843  0.6665368889931084  0.4997796293964894   T   T   T
  0.7440352721483496  0.1667737325504243  0.4998535323703656   T   T   T
  0.7440420910235545  0.4998522538493644  0.4999346324750092   T   T   T
  0.7440485506290783  0.8332809517283957  0.4998989420850380   T   T   T
  0.8186073299999990  0.0003462199999973  0.4994097590000024   F   F   F
  0.8187517280000023  0.3333150540000034  0.4999405399999972   F   F   F
  0.8186085640000016  0.6662969220000008  0.5004766710000013   F   F   F
  0.8949177120000016  0.1683903899999990  0.4972147730000032   F   F   F
  0.8949169830000017  0.4982311690000003  0.5027087249999980   F   F   F
  0.8943918450000012  0.8333183860000020  0.4999700210000029   F   F   F
  0.3983649148835974  0.1577249659806294  0.5475114853012312   T   T   T
  0.4045299303836783  0.4961942164153594  0.5489671997464552   T   T   T
  0.4003868498294420  0.8541814685912674  0.5516451372336504   T   T   T
  0.4044223713531481  0.1641699475808714  0.4476057712637599   T   T   T
  0.3985249725902193  0.5209458739924909  0.4522980486938485   T   T   T
  0.4004957787301237  0.8294233246986064  0.4486521251054854   T   T   T
  0.4243123052880674  0.0088248104949240  0.3468568778199242   T   T   T
  0.4216134868912373  0.3293623983037899  0.3480988016888645   T   T   T
  0.4147448649792041  0.6685726758329663  0.3513168574692231   T   T   T
  0.4240621157254416 -0.0364909174491971  0.6558362474735111   T   T   T
  0.4198212507194311  0.3306133188051707  0.6494537326491793   T   T   T
  0.4199040870502895  0.6510273294891742  0.6504856678224595   T   T   T
  0.4731124344305273  0.0000781049468918  0.5549477971187855   T   T   T
  0.4732621902794601  0.3334450337943420  0.5539903902351107   T   T   T
  0.4729956815458273  0.6661704447732878  0.5542358222698227   T   T   T
  0.4739018508598304  0.0002451182994313  0.4456141473024571   T   T   T
  0.4736749171752046  0.3322295066836098  0.4447777150529750   T   T   T
  0.4725658667155966  0.6689058638981737  0.4446155554625071   T   T   T
  0.4974142777775726  0.1682815849620728  0.3471621959812778   T   T   T
  0.4946010220018738  0.5028274295420332  0.3472531541353749   T   T   T
  0.4953479595686283  0.8316065852395079  0.3472203478925318   T   T   T
  0.4959048778645173  0.1657928300632258  0.6524091244526925   T   T   T
  0.4956186833763000  0.4963886352849559  0.6520565313732112   T   T   T
  0.4958917137391482  0.8291644729792910  0.6521285474403877   T   T   T
  0.5468273053000591  0.1666457904765233  0.5543520081852819   T   T   T
  0.5465304532871189  0.5000433479056654  0.5539898682010168   T   T   T
  0.5467203469110220  0.8323252440786838  0.5542131074518142   T   T   T
  0.5470231473511344  0.1661819129390801  0.4456545829539317   T   T   T
  0.5464171851594212  0.5002687827058045  0.4451721741995747   T   T   T
  0.5465913532034203  0.8335275927058925  0.4453370467953556   T   T   T
  0.5702287801467076  0.9992130335420317  0.3476112571132606   T   T   T
  0.5702059879043118  0.3352571228099477  0.3475460070928589   T   T   T
  0.5700863536972163  0.6666648983304853  0.3472673234718453   T   T   T
  0.5700627091002044  0.9984173737581993  0.6521065633135069   T   T   T
  0.5702425181145045  0.3324524406089981  0.6521634637285869   T   T   T
  0.5701604971533414  0.6645076241407817  0.6521306378912940   T   T   T
  0.6204505754894859  0.9995178909499026  0.5541521687627843   T   T   T
  0.6204093726464482  0.3335089985470030  0.5540827704862125   T   T   T
  0.6203667836121495  0.6662653116503160  0.5540421506296958   T   T   T
  0.6204638485656218  0.9997806908601548  0.4455958718877706   T   T   T
  0.6204210355872135  0.3334079210356408  0.4455543022445553   T   T   T
  0.6203697691553478  0.6665608589910467  0.4454261865806036   T   T   T
  0.6442105218793190  0.1669152054962328  0.3476506084269752   T   T   T
  0.6444741121921688  0.5003488954380602  0.3475125250073430   T   T   T
  0.6444025036121924  0.8331717586126944  0.3475422979057632   T   T   T
  0.6443277782945991  0.1659570694679073  0.6520645203084028   T   T   T
  0.6443525328387913  0.4992879364624675  0.6521363098188101   T   T   T
  0.6443092187094829  0.8324279464647811  0.6520989119848872   T   T   T
  0.6944325044795885  0.1665882210018008  0.5540217589423424   T   T   T
  0.6943935055845802  0.4998905740663673  0.5540343338439527   T   T   T
  0.6944367830541258  0.8331253358883062  0.5540465116222117   T   T   T
  0.6944130331732977  0.1666921976966775  0.4456503173171193   T   T   T
  0.6944791981838941  0.4999267543530807  0.4456556600614603   T   T   T
  0.6944790551393499  0.8332320973830346  0.4456389093013893   T   T   T
  0.7183048768842260  0.0003592899659049  0.3476460515050264   T   T   T
  0.7183976171797443  0.3331849437226522  0.3477385204294310   T   T   T
  0.7184649331816941  0.6667248132184652  0.3477983509237982   T   T   T
  0.7183576250238539  0.9996379471628344  0.6519118068112117   T   T   T
  0.7183785120372511  0.3331301098062006  0.6519638576198641   T   T   T
  0.7183199278012340  0.6660462932590558  0.6520985720623051   T   T   T
  0.7688073312613303  0.0001565030772202  0.5537213735169106   T   T   T
  0.7687774108422797  0.3333302125627988  0.5539263360311375   T   T   T
  0.7686373304613819  0.6663834465953676  0.5541456932935380   T   T   T
  0.7686469835404890  0.0002440921466400  0.4456913158001338   T   T   T
  0.7687966440365851  0.3333449995080504  0.4459003387904094   T   T   T
  0.7688469920643035  0.6664548479066490  0.4461104571014261   T   T   T
  0.7924403580000003  0.1668991949999992  0.3477258679999977   F   F   F
  0.7920809350000013  0.4997521319999976  0.3485803189999999   F   F   F
  0.7918958659999973  0.8338193649999965  0.3481265360000023   F   F   F
  0.7920615809999987  0.1669017489999973  0.6512714469999992   F   F   F
  0.7924372729999973  0.4997758370000014  0.6521520200000026   F   F   F
  0.7918833559999996  0.8328482670000028  0.6517527620000010   F   F   F
  0.8437314869999994  0.1662134890000004  0.5524910219999981   F   F   F
  0.8434264240000005  0.4992424129999975  0.5546842239999989   F   F   F
  0.8432040499999971  0.8342123600000022  0.5534373570000000   F   F   F
  0.8434354560000017  0.1673776849999982  0.4452039060000033   F   F   F
  0.8437378830000029  0.5004141869999970  0.4474010050000032   F   F   F
  0.8432168399999966  0.8324396510000014  0.4464683949999966   F   F   F
  0.8660135269999998  0.9978138680000015  0.3463631300000003   F   F   F
  0.8661235920000010  0.3364354420000026  0.3469893830000004   F   F   F
  0.8642563539999983  0.6667564449999972  0.3483143679999969   F   F   F
  0.8642337459999965  0.9998748100000014  0.6516193719999990   F   F   F
  0.8661041260000033  0.3301647329999966  0.6529160790000006   F   F   F
  0.8659944529999990  0.6688152010000010  0.6535493189999997   F   F   F
  0.9183411320000019  0.0021640499999975  0.5505992229999990   F   F   F
  0.9166093709999998  0.3248715949999976  0.5552934560000011   F   F   F
  0.9170204050000024  0.6757266629999990  0.5565031719999993   F   F   F
  0.9170354959999969  0.9909249099999968  0.4434414320000002   F   F   F
  0.9166181789999968  0.3417720030000027  0.4446382109999973   F   F   F
  0.9183636830000026  0.6644691010000017  0.4493654500000019   F   F   F
  0.9388230830000026  0.1677357900000018  0.3408632900000015   F   F   F
  0.9382123390000032  0.5163285860000002  0.3407312269999991   F   F   F
  0.9381025539999968  0.8177413239999964  0.3401961530000008   F   F   F
  0.9382008380000002  0.1503061780000010  0.6592302740000022   F   F   F
  0.9388014290000015  0.4989028379999993  0.6590827030000028   F   F   F
  0.9380883050000008  0.8488822839999983  0.6597688089999991   F   F   F
  0.3524252905014331  0.3431570414247734  0.5966021952992074   T   T   T
  0.3570949416042330  0.6704079330316023  0.5972538698844284   T   T   T
  0.3556693457763836  0.9979571550968457  0.3863400918005460   T   T   T
  0.3583006021527713  0.3420012349835062  0.4043343393445893   T   T   T
  0.9645133300000026  0.1163042499999989  0.6916944250000014   F   F   F
  0.9642846719999980  0.8837216539999986  0.6923786250000035   F   F   F
  0.9642983600000008  0.7828876969999996  0.3075880379999987   F   F   F
  0.9645287009999990  0.5503624130000020  0.3082598809999979   F   F   F
  0.3853700285764161  0.0148545347537149  0.6518409862234694   T   T   T
  0.3858408815986843  0.2061770682693050  0.6187955344705783   T   T   T
  0.3873192008989674  0.4972885996261813  0.6199174055949533   T   T   T
  0.3925142625134297  0.8087519361303985  0.6248418404401785   T   T   T
  0.3888324241493888  0.1632582345462683  0.3752565681189348   T   T   T
  0.3949890029675265  0.4809970719714687  0.3780402719338328   T   T   T
  0.3945349153669492  0.8638714290063134  0.3736659220285466   T   T   T
  0.4719402354999599 -0.0019737730285606  0.6311866747485102   T   T   T
  0.4691979599367475  0.3311458476132766  0.6313200440854916   T   T   T
  0.4695740358601601  0.6613981916604617  0.6317504802773128   T   T   T
  0.4720412234633082  0.0028751440319782  0.3678737130328457   T   T   T
  0.4706985470464327  0.3316005115215356  0.3671830938090141   T   T   T
  0.4674588956555797  0.6683772267291416  0.3676860057729946   T   T   T
  0.5454085210226300  0.1660170931675063  0.6304780095601203   T   T   T
  0.5450039078749446  0.4981677265924572  0.6302162083096182   T   T   T
  0.5453419284643244  0.8307362215162427  0.6304036513141166   T   T   T
  0.5461506592293641  0.1674980065306647  0.3694845538914163   T   T   T
  0.5445473740589714  0.5015613494694313  0.3689397226742500   T   T   T
  0.5449380577778713  0.8322182863718239  0.3690506014327165   T   T   T
  0.6195762847551068  0.9990973717001437  0.6301794462050664   T   T   T
  0.6196354863720009  0.3327335011514029  0.6301140696183951   T   T   T
  0.6195813444379407  0.6656078218308937  0.6301011782624714   T   T   T
  0.6196379294353790  0.9995867903741967  0.3695490711403085   T   T   T
  0.6196187745602867  0.3342827050372554  0.3695179926353809   T   T   T
  0.6195550874330059  0.6666234861981902  0.3693777726901579   T   T   T
  0.6937306106882152  0.1663415489668817  0.6299829748783118   T   T   T
  0.6936862834800881  0.4995785812048247  0.6300083400641052   T   T   T
  0.6937154532641829  0.8327738970280191  0.6300291644690783   T   T   T
  0.6936220216059471  0.1667780036837453  0.3696681363361596   T   T   T
  0.6938214324409739  0.5000692196349664  0.3696832451980798   T   T   T
  0.6937746520068089  0.8334046334160385  0.3696565885038117   T   T   T
  0.7676211206539237  0.9998307441870260  0.6296115810502204   T   T   T
  0.7677069558348170  0.3339656145531575  0.6298487517025736   T   T   T
  0.7676513159628170  0.6656585129790175  0.6300799961822127   T   T   T
  0.7676325053980212  0.0009849261095579  0.3697515321518318   T   T   T
  0.7677068564359814  0.3326994618542261  0.3699746033310854   T   T   T
  0.7676718597387959  0.6667563458763588  0.3702257916892586   T   T   T
  0.8410139639999983  0.1696199120000017  0.6285724230000014   F   F   F
  0.8422840899999997  0.4996610800000028  0.6315221369999975   F   F   F
  0.8408998600000004  0.8297220070000009  0.6294451170000031   F   F   F
  0.8422910470000033  0.1669476570000015  0.3683593579999993   F   F   F
  0.8410330379999991  0.4969668680000012  0.3713167849999977   F   F   F
  0.8409131550000026  0.8369255790000025  0.3704634959999993   F   F   F
  0.9100824240000023  0.9993747039999974  0.6208688070000008   F   F   F
  0.9162541560000008  0.3517900350000005  0.6292670289999975   F   F   F
  0.9162962300000004  0.6473510849999968  0.6300453520000033   F   F   F
  0.9163113199999984  0.0193125099999989  0.3698907109999965   F   F   F
  0.9162725560000027  0.3148402369999985  0.3706645139999978   F   F   F
  0.9100983000000014  0.6672375970000033  0.3790923410000033   F   F   F
 
  0.00000000E+00  0.00000000E+00  0.00000000E+00
  0.00000000E+00  0.00000000E+00  0.00000000E+00
  0.00000000E+00  0.00000000E+00  0.00000000E+00
  0.00000000E+00  0.00000000E+00  0.00000000E+00
  0.00000000E+00  0.00000000E+00  0.00000000E+00
  0.00000000E+00  0.00000000E+00  0.00000000E+00
  0.00000000E+00  0.00000000E+00  0.00000000E+00
  0.00000000E+00  0.00000000E+00  0.00000000E+00
  0.00000000E+00  0.00000000E+00  0.00000000E+00
  0.00000000E+00  0.00000000E+00  0.00000000E+00
  0.00000000E+00  0.00000000E+00  0.00000000E+00
  0.00000000E+00  0.00000000E+00  0.00000000E+00
  0.00000000E+00  0.00000000E+00  0.00000000E+00
  0.00000000E+00  0.00000000E+00  0.00000000E+00
  0.00000000E+00  0.00000000E+00  0.00000000E+00
  0.00000000E+00  0.00000000E+00  0.00000000E+00
  0.00000000E+00  0.00000000E+00  0.00000000E+00
  0.00000000E+00  0.00000000E+00  0.00000000E+00
  0.00000000E+00  0.00000000E+00  0.00000000E+00
  0.00000000E+00  0.00000000E+00  0.00000000E+00
  0.00000000E+00  0.00000000E+00  0.00000000E+00
  0.00000000E+00  0.00000000E+00  0.00000000E+00
  0.00000000E+00  0.00000000E+00  0.00000000E+00
  0.00000000E+00  0.00000000E+00  0.00000000E+00
  0.00000000E+00  0.00000000E+00  0.00000000E+00
  0.00000000E+00  0.00000000E+00  0.00000000E+00
  0.00000000E+00  0.00000000E+00  0.00000000E+00
  0.00000000E+00  0.00000000E+00  0.00000000E+00
  0.00000000E+00  0.00000000E+00  0.00000000E+00
  0.00000000E+00  0.00000000E+00  0.00000000E+00
  0.00000000E+00  0.00000000E+00  0.00000000E+00
  0.00000000E+00  0.00000000E+00  0.00000000E+00
  0.00000000E+00  0.00000000E+00  0.00000000E+00
  0.00000000E+00  0.00000000E+00  0.00000000E+00
  0.00000000E+00  0.00000000E+00  0.00000000E+00
  0.00000000E+00  0.00000000E+00  0.00000000E+00
  0.00000000E+00  0.00000000E+00  0.00000000E+00
  0.00000000E+00  0.00000000E+00  0.00000000E+00
  0.00000000E+00  0.00000000E+00  0.00000000E+00
  0.00000000E+00  0.00000000E+00  0.00000000E+00
  0.00000000E+00  0.00000000E+00  0.00000000E+00
  0.00000000E+00  0.00000000E+00  0.00000000E+00
  0.00000000E+00  0.00000000E+00  0.00000000E+00
  0.00000000E+00  0.00000000E+00  0.00000000E+00
  0.00000000E+00  0.00000000E+00  0.00000000E+00
  0.00000000E+00  0.00000000E+00  0.00000000E+00
  0.00000000E+00  0.00000000E+00  0.00000000E+00
  0.00000000E+00  0.00000000E+00  0.00000000E+00
  0.00000000E+00  0.00000000E+00  0.00000000E+00
  0.00000000E+00  0.00000000E+00  0.00000000E+00
  0.00000000E+00  0.00000000E+00  0.00000000E+00
  0.00000000E+00  0.00000000E+00  0.00000000E+00
  0.00000000E+00  0.00000000E+00  0.00000000E+00
  0.00000000E+00  0.00000000E+00  0.00000000E+00
  0.00000000E+00  0.00000000E+00  0.00000000E+00
  0.00000000E+00  0.00000000E+00  0.00000000E+00
  0.00000000E+00  0.00000000E+00  0.00000000E+00
  0.00000000E+00  0.00000000E+00  0.00000000E+00
  0.00000000E+00  0.00000000E+00  0.00000000E+00
  0.00000000E+00  0.00000000E+00  0.00000000E+00
  0.00000000E+00  0.00000000E+00  0.00000000E+00
  0.00000000E+00  0.00000000E+00  0.00000000E+00
  0.00000000E+00  0.00000000E+00  0.00000000E+00
  0.00000000E+00  0.00000000E+00  0.00000000E+00
  0.00000000E+00  0.00000000E+00  0.00000000E+00
  0.00000000E+00  0.00000000E+00  0.00000000E+00
  0.00000000E+00  0.00000000E+00  0.00000000E+00
  0.00000000E+00  0.00000000E+00  0.00000000E+00
  0.00000000E+00  0.00000000E+00  0.00000000E+00
  0.00000000E+00  0.00000000E+00  0.00000000E+00
  0.00000000E+00  0.00000000E+00  0.00000000E+00
  0.00000000E+00  0.00000000E+00  0.00000000E+00
  0.00000000E+00  0.00000000E+00  0.00000000E+00
  0.00000000E+00  0.00000000E+00  0.00000000E+00
  0.00000000E+00  0.00000000E+00  0.00000000E+00
  0.00000000E+00  0.00000000E+00  0.00000000E+00
  0.00000000E+00  0.00000000E+00  0.00000000E+00
  0.00000000E+00  0.00000000E+00  0.00000000E+00
  0.00000000E+00  0.00000000E+00  0.00000000E+00
  0.00000000E+00  0.00000000E+00  0.00000000E+00
  0.00000000E+00  0.00000000E+00  0.00000000E+00
  0.00000000E+00  0.00000000E+00  0.00000000E+00
  0.00000000E+00  0.00000000E+00  0.00000000E+00
  0.00000000E+00  0.00000000E+00  0.00000000E+00
  0.00000000E+00  0.00000000E+00  0.00000000E+00
  0.00000000E+00  0.00000000E+00  0.00000000E+00
  0.00000000E+00  0.00000000E+00  0.00000000E+00
  0.00000000E+00  0.00000000E+00  0.00000000E+00
  0.00000000E+00  0.00000000E+00  0.00000000E+00
  0.00000000E+00  0.00000000E+00  0.00000000E+00
  0.00000000E+00  0.00000000E+00  0.00000000E+00
  0.00000000E+00  0.00000000E+00  0.00000000E+00
  0.00000000E+00  0.00000000E+00  0.00000000E+00
  0.00000000E+00  0.00000000E+00  0.00000000E+00
  0.00000000E+00  0.00000000E+00  0.00000000E+00
  0.00000000E+00  0.00000000E+00  0.00000000E+00
  0.00000000E+00  0.00000000E+00  0.00000000E+00
  0.00000000E+00  0.00000000E+00  0.00000000E+00
  0.00000000E+00  0.00000000E+00  0.00000000E+00
  0.00000000E+00  0.00000000E+00  0.00000000E+00
  0.00000000E+00  0.00000000E+00  0.00000000E+00
  0.00000000E+00  0.00000000E+00  0.00000000E+00
  0.00000000E+00  0.00000000E+00  0.00000000E+00
  0.00000000E+00  0.00000000E+00  0.00000000E+00
  0.00000000E+00  0.00000000E+00  0.00000000E+00
  0.00000000E+00  0.00000000E+00  0.00000000E+00
  0.00000000E+00  0.00000000E+00  0.00000000E+00
  0.00000000E+00  0.00000000E+00  0.00000000E+00
  0.00000000E+00  0.00000000E+00  0.00000000E+00
  0.00000000E+00  0.00000000E+00  0.00000000E+00
  0.00000000E+00  0.00000000E+00  0.00000000E+00
  0.00000000E+00  0.00000000E+00  0.00000000E+00
  0.00000000E+00  0.00000000E+00  0.00000000E+00
  0.00000000E+00  0.00000000E+00  0.00000000E+00
  0.00000000E+00  0.00000000E+00  0.00000000E+00
  0.00000000E+00  0.00000000E+00  0.00000000E+00
  0.00000000E+00  0.00000000E+00  0.00000000E+00
  0.00000000E+00  0.00000000E+00  0.00000000E+00
  0.00000000E+00  0.00000000E+00  0.00000000E+00
  0.00000000E+00  0.00000000E+00  0.00000000E+00
  0.00000000E+00  0.00000000E+00  0.00000000E+00
  0.00000000E+00  0.00000000E+00  0.00000000E+00
  0.00000000E+00  0.00000000E+00  0.00000000E+00
  0.00000000E+00  0.00000000E+00  0.00000000E+00
  0.00000000E+00  0.00000000E+00  0.00000000E+00
  0.00000000E+00  0.00000000E+00  0.00000000E+00
  0.00000000E+00  0.00000000E+00  0.00000000E+00
  0.00000000E+00  0.00000000E+00  0.00000000E+00
  0.00000000E+00  0.00000000E+00  0.00000000E+00
  0.00000000E+00  0.00000000E+00  0.00000000E+00
  0.00000000E+00  0.00000000E+00  0.00000000E+00
  0.00000000E+00  0.00000000E+00  0.00000000E+00
  0.00000000E+00  0.00000000E+00  0.00000000E+00
  0.00000000E+00  0.00000000E+00  0.00000000E+00
  0.00000000E+00  0.00000000E+00  0.00000000E+00
  0.00000000E+00  0.00000000E+00  0.00000000E+00
  0.00000000E+00  0.00000000E+00  0.00000000E+00
  0.00000000E+00  0.00000000E+00  0.00000000E+00
  0.00000000E+00  0.00000000E+00  0.00000000E+00
  0.00000000E+00  0.00000000E+00  0.00000000E+00
  0.00000000E+00  0.00000000E+00  0.00000000E+00
  0.00000000E+00  0.00000000E+00  0.00000000E+00
  0.00000000E+00  0.00000000E+00  0.00000000E+00
  0.00000000E+00  0.00000000E+00  0.00000000E+00
  0.00000000E+00  0.00000000E+00  0.00000000E+00
  0.00000000E+00  0.00000000E+00  0.00000000E+00
  0.00000000E+00  0.00000000E+00  0.00000000E+00
  0.00000000E+00  0.00000000E+00  0.00000000E+00
  0.00000000E+00  0.00000000E+00  0.00000000E+00
  0.00000000E+00  0.00000000E+00  0.00000000E+00
  0.00000000E+00  0.00000000E+00  0.00000000E+00
  0.00000000E+00  0.00000000E+00  0.00000000E+00
  0.00000000E+00  0.00000000E+00  0.00000000E+00
  0.00000000E+00  0.00000000E+00  0.00000000E+00
  0.00000000E+00  0.00000000E+00  0.00000000E+00
  0.00000000E+00  0.00000000E+00  0.00000000E+00
  0.00000000E+00  0.00000000E+00  0.00000000E+00
  0.00000000E+00  0.00000000E+00  0.00000000E+00
  0.00000000E+00  0.00000000E+00  0.00000000E+00
  0.00000000E+00  0.00000000E+00  0.00000000E+00
  0.00000000E+00  0.00000000E+00  0.00000000E+00
  0.00000000E+00  0.00000000E+00  0.00000000E+00
  0.00000000E+00  0.00000000E+00  0.00000000E+00
  0.00000000E+00  0.00000000E+00  0.00000000E+00
  0.00000000E+00  0.00000000E+00  0.00000000E+00
  0.00000000E+00  0.00000000E+00  0.00000000E+00
  0.00000000E+00  0.00000000E+00  0.00000000E+00
  0.00000000E+00  0.00000000E+00  0.00000000E+00
  0.00000000E+00  0.00000000E+00  0.00000000E+00
  0.00000000E+00  0.00000000E+00  0.00000000E+00
  0.00000000E+00  0.00000000E+00  0.00000000E+00
  0.00000000E+00  0.00000000E+00  0.00000000E+00
  0.00000000E+00  0.00000000E+00  0.00000000E+00
  0.00000000E+00  0.00000000E+00  0.00000000E+00
  0.00000000E+00  0.00000000E+00  0.00000000E+00
  0.00000000E+00  0.00000000E+00  0.00000000E+00
  0.00000000E+00  0.00000000E+00  0.00000000E+00
