CONTCAR1                                
   1.00000000000000     
    29.0000000000000000    0.0000000000000000    0.0000000000000000
     0.0000000000000000    2.9100000858000001    0.0000000000000000
     0.0000000000000000    0.0000000000000000   23.0000000000000000
   Mo   N    Si
     6    24    12
Direct
  0.1266337727845494  0.0000000000000000  0.4999474088333118
  0.2122071464318628  0.5000000000000000  0.4999507896664541
  0.3003765848425652  0.0000000000000000  0.4999451383068234
  0.3880488550479809  0.5000000000000000  0.4999366435797141
  0.4756327527888278  0.0000000000000000  0.4999403499559142
  0.5657885745665920  0.5000000000000000  0.4999398377371732
  0.1513628119255791  0.5000000000000000  0.5554189361965047
  0.1513597929789384  0.5000000000000000  0.4444745902199990
  0.1862825540725362  0.0000000000000000  0.3478719687600830
  0.1862820992473826  0.0000000000000000  0.6520297093251775
  0.2417878204856913  0.0000000000000000  0.5534953725090549
  0.2417872589284480  0.0000000000000000  0.4464103692376941
  0.2726602604794713  0.5000000000000000  0.3487337193575191
  0.2726639245849447  0.5000000000000000  0.6511689278293102
  0.3296275180353282  0.5000000000000000  0.5536802392506451
  0.3296252883092013  0.5000000000000000  0.4462150462887519
  0.3593440353148116  0.0000000000000000  0.3484627192074477
  0.3593478299129184  0.0000000000000000  0.6514212974379020
  0.4171088431597495  0.0000000000000000  0.5535947544455218
  0.4171081625443256  0.0000000000000000  0.4462870992830277
  0.4459177623213562  0.5000000000000000  0.3488476827448705
  0.4459186513432306  0.5000000000000000  0.6510308820074664
  0.5046286811190811  0.5000000000000000  0.5531666439968522
  0.5046275743726939  0.5000000000000000  0.4467212908510336
  0.5317847129872327  0.0000000000000000  0.3477158915962495
  0.5317872864618266  0.0000000000000000  0.6521710527619652
  0.5887668596787433  0.0000000000000000  0.5543356399621446
  0.5887625287105908  0.0000000000000000  0.4455417870936110
  0.6168334550520409  0.5000000000000000  0.3472112839152557
  0.6168311432059597  0.5000000000000000  0.6526694513642334
  0.1555824657429142  0.5000000000000000  0.6325029880137484
  0.1555826211994800  0.5000000000000000  0.3673842778089920
  0.2438188324356848  0.0000000000000000  0.6298920175211440
  0.2438208005472494  0.0000000000000000  0.3700124028373908
  0.3308535508718251  0.5000000000000000  0.6298353720417101
  0.3308544176706937  0.5000000000000000  0.3700557478264801
  0.4178218967737385  0.0000000000000000  0.6298757218608133
  0.4178196643475344  0.0000000000000000  0.3700019937745455
  0.5049852428679286  0.5000000000000000  0.6305197986774984
  0.5049821059981199  0.5000000000000000  0.3693642836011662
  0.5921318796063175  0.0000000000000000  0.6309818747714393
  0.5921286222440406  0.0000000000000000  0.3688971835433362
 
  0.00000000E+00  0.00000000E+00  0.00000000E+00
  0.00000000E+00  0.00000000E+00  0.00000000E+00
  0.00000000E+00  0.00000000E+00  0.00000000E+00
  0.00000000E+00  0.00000000E+00  0.00000000E+00
  0.00000000E+00  0.00000000E+00  0.00000000E+00
  0.00000000E+00  0.00000000E+00  0.00000000E+00
  0.00000000E+00  0.00000000E+00  0.00000000E+00
  0.00000000E+00  0.00000000E+00  0.00000000E+00
  0.00000000E+00  0.00000000E+00  0.00000000E+00
  0.00000000E+00  0.00000000E+00  0.00000000E+00
  0.00000000E+00  0.00000000E+00  0.00000000E+00
  0.00000000E+00  0.00000000E+00  0.00000000E+00
  0.00000000E+00  0.00000000E+00  0.00000000E+00
  0.00000000E+00  0.00000000E+00  0.00000000E+00
  0.00000000E+00  0.00000000E+00  0.00000000E+00
  0.00000000E+00  0.00000000E+00  0.00000000E+00
  0.00000000E+00  0.00000000E+00  0.00000000E+00
  0.00000000E+00  0.00000000E+00  0.00000000E+00
  0.00000000E+00  0.00000000E+00  0.00000000E+00
  0.00000000E+00  0.00000000E+00  0.00000000E+00
  0.00000000E+00  0.00000000E+00  0.00000000E+00
  0.00000000E+00  0.00000000E+00  0.00000000E+00
  0.00000000E+00  0.00000000E+00  0.00000000E+00
  0.00000000E+00  0.00000000E+00  0.00000000E+00
  0.00000000E+00  0.00000000E+00  0.00000000E+00
  0.00000000E+00  0.00000000E+00  0.00000000E+00
  0.00000000E+00  0.00000000E+00  0.00000000E+00
  0.00000000E+00  0.00000000E+00  0.00000000E+00
  0.00000000E+00  0.00000000E+00  0.00000000E+00
  0.00000000E+00  0.00000000E+00  0.00000000E+00
  0.00000000E+00  0.00000000E+00  0.00000000E+00
  0.00000000E+00  0.00000000E+00  0.00000000E+00
  0.00000000E+00  0.00000000E+00  0.00000000E+00
  0.00000000E+00  0.00000000E+00  0.00000000E+00
  0.00000000E+00  0.00000000E+00  0.00000000E+00
  0.00000000E+00  0.00000000E+00  0.00000000E+00
  0.00000000E+00  0.00000000E+00  0.00000000E+00
  0.00000000E+00  0.00000000E+00  0.00000000E+00
  0.00000000E+00  0.00000000E+00  0.00000000E+00
  0.00000000E+00  0.00000000E+00  0.00000000E+00
  0.00000000E+00  0.00000000E+00  0.00000000E+00
  0.00000000E+00  0.00000000E+00  0.00000000E+00
