CONTCAR1                                
   1.00000000000000     
     5.0399999619000004    0.0000000000000000    0.0000000000000000
     0.0000000000000000   33.0000000000000000    0.0000000000000000
     0.0000000000000000    0.0000000000000000   23.0000000000000000
   Mo   N    Si
    14    56    28
Direct
  0.9620480421938313  0.1387293168512603  0.4999438798755346
  0.0004571499296612  0.2231473112618871  0.4999457876291688
  0.4882038842435223  0.1761802132228664  0.4999448930261947
  0.9915010170123406  0.3112828372040501  0.4999482455666439
  0.4935005866865748  0.2673139421070565  0.4999470816741270
  0.9907722045596981  0.3997390293342918  0.4999478801678343
  0.4919117824970182  0.3556146014349978  0.4999487717959457
  0.9918795224336195  0.4878645082254398  0.4999461884774402
  0.4907654799438146  0.4437326239351874  0.4999471535510822
  0.9934226411281751  0.5761716427187534  0.4999458726962674
  0.4914360020913159  0.5321984604837150  0.4999461751022158
  0.9881612655281451  0.6673077849733285  0.4999438504457100
  0.5003843342698445  0.6203347017951083  0.4999462323629413
  0.4620455059023385  0.7047526715200269  0.4999431878063444
  0.1640344398668523  0.1781277749635655  0.5545218451660116
  0.1640258634950114  0.1781287046698637  0.4453682659652051
  0.3207072283202257  0.1345684698868856  0.3443530667888391
  0.3207337341154426  0.1345684062933615  0.6555387876075593
  0.6953229905898041  0.1314742028676381  0.5582318665152742
  0.6953076056278207  0.1314744939689562  0.4416581250373581
  0.1593202287678462  0.2673463870790669  0.5544574968689331
  0.1593147308256729  0.2673458622833829  0.4454349580829056
  0.3242782745196903  0.2233670328153491  0.3482029147693088
  0.3242875996316412  0.2233689545705232  0.6516884868728047
  0.6581280868075581  0.2222515971434765  0.5532668721116196
  0.6581267242761438  0.2222516021214767  0.4466251977102900
  0.1557670532813749  0.3555874499187370  0.5547062913654265
  0.1557614449499015  0.3555861360514426  0.4451894978815832
  0.3247303336285710  0.3115577609456076  0.3471387753938993
  0.3247483270195257  0.3115605733152016  0.6527580285015480
  0.6560116011279036  0.3114878840666124  0.5547335653314610
  0.6560043338704543  0.3114866075003319  0.4451631587718425
  0.1557388872823793  0.4437498478175276  0.5548766076451808
  0.1557298430869346  0.4437495038337542  0.4450126524560976
  0.3248025135918367  0.3996685777785651  0.3468819444115817
  0.3248495067906383  0.3996723709560538  0.6530141800615314
  0.6557561164903769  0.3997236736885527  0.5548824350945704
  0.6557481239039493  0.3997230168578285  0.4450104836861273
  0.1559480152883853  0.5319979034215440  0.5547236030630629
  0.1559393214544932  0.5319968497808758  0.4451622531939097
  0.3248272061909852  0.4877657687420408  0.3469581434933425
  0.3248613438210698  0.4877695544199245  0.6529291489281822
  0.6557355723968136  0.4878899355778146  0.5546923166713916
  0.6557259675982526  0.4878892848214704  0.4451960952715598
  0.1580559189567882  0.6212341823912412  0.5532656035918454
  0.1580528659286260  0.6212340661603204  0.4466241527140118
  0.3250898836775430  0.5757627617941169  0.3478353840975362
  0.3251028722884324  0.5757657510645467  0.6520585008976632
  0.6592252668636991  0.5761370577374640  0.5544583472494220
  0.6592274151235575  0.5761370572996487  0.4454333960996094
  0.1952647196448073  0.7120202388551933  0.5582182887165714
  0.1952632920031577  0.7120187836002005  0.4416682544565532
  0.3266213957009181  0.6634471044198187  0.3466618715720731
  0.3266219950768037  0.6634490845878172  0.6532259885596390
  0.6639652010176603  0.6653526501359501  0.5545166357266192
  0.6639675511314824  0.6653522692909263  0.4453720534879436
  0.8267329470303051  0.1800460845842674  0.3466520645312566
  0.8267599102883580  0.1800473429711585  0.6532358050099936
  0.8252373335515194  0.2677200888968343  0.3478363948372145
  0.8252513517932665  0.2677227667041124  0.6520569487328870
  0.8249166132938882  0.3557147854507842  0.3469481952919068
  0.8249521127648328  0.3557184631906187  0.6529502559465478
  0.8247699650472473  0.4438109582048432  0.3468827451484808
  0.8248119013633481  0.4438153111045749  0.6530089056538309
  0.8245839678838359  0.5319205830871625  0.3471494915357531
  0.8246188607334151  0.5319244040048482  0.6527414115995465
  0.8241591784232055  0.6201157138355938  0.3482066974993992
  0.8241691017225047  0.6201183821281255  0.6516822055013035
  0.8205752987270414  0.7089197874030536  0.3443670969248125
  0.8205795776243956  0.7089199133374869  0.6555202972519505
  0.1587844801373593  0.1765388312377594  0.6328696944184770
  0.1587538147981607  0.1765391029723937  0.3670184677067668
  0.6164367615467347  0.1417964522409183  0.6279101337798810
  0.6164026716084506  0.1417954693156320  0.3719770496582625
  0.1574886707084182  0.2671779746954976  0.6307465402821715
  0.1574763967921497  0.2671731772588541  0.3691455913043598
  0.6551452722760110  0.2239391526921144  0.6303855401033572
  0.6551391065835966  0.2239369628290930  0.3695087838464670
  0.1564040292380932  0.3555916192550774  0.6308595143475162
  0.1563634006921762  0.3555866728919759  0.3690397530570965
  0.6561206383974970  0.3117428044130751  0.6308467260260171
  0.6561001956144125  0.3117389252540257  0.3690535179565424
  0.1562856637765745  0.4437168361093516  0.6309919622752158
  0.1562463668586677  0.4437140251174864  0.3688994199185918
  0.6563272108284236  0.3997657093014123  0.6310029003622518
  0.6562801583334459  0.3997607045623717  0.3688940109113026
  0.1559778027673799  0.5317453661009915  0.6308316735197911
  0.1559525599400357  0.5317424220768979  0.3690559190819083
  0.6563094407873535  0.4878906120669902  0.6308371713564863
  0.6562663024774005  0.4878867387905022  0.3690536220681299
  0.1550613021627810  0.6195567108792205  0.6303861434423919
  0.1550499365019818  0.6195551032505846  0.3695041267728145
  0.6573158664287957  0.5763098647469594  0.6307490784683472
  0.6573100598796272  0.5763080107121169  0.3691445677156061
  0.1162642279221953  0.7017000635190026  0.6278894166999409
  0.1162778090550407  0.7017015087840766  0.3719923907845235
  0.6586517682616142  0.6669449509312310  0.6328600949404762
  0.6586507609277069  0.6669436285283914  0.3670269736650328
 
  0.00000000E+00  0.00000000E+00  0.00000000E+00
  0.00000000E+00  0.00000000E+00  0.00000000E+00
  0.00000000E+00  0.00000000E+00  0.00000000E+00
  0.00000000E+00  0.00000000E+00  0.00000000E+00
  0.00000000E+00  0.00000000E+00  0.00000000E+00
  0.00000000E+00  0.00000000E+00  0.00000000E+00
  0.00000000E+00  0.00000000E+00  0.00000000E+00
  0.00000000E+00  0.00000000E+00  0.00000000E+00
  0.00000000E+00  0.00000000E+00  0.00000000E+00
  0.00000000E+00  0.00000000E+00  0.00000000E+00
  0.00000000E+00  0.00000000E+00  0.00000000E+00
  0.00000000E+00  0.00000000E+00  0.00000000E+00
  0.00000000E+00  0.00000000E+00  0.00000000E+00
  0.00000000E+00  0.00000000E+00  0.00000000E+00
  0.00000000E+00  0.00000000E+00  0.00000000E+00
  0.00000000E+00  0.00000000E+00  0.00000000E+00
  0.00000000E+00  0.00000000E+00  0.00000000E+00
  0.00000000E+00  0.00000000E+00  0.00000000E+00
  0.00000000E+00  0.00000000E+00  0.00000000E+00
  0.00000000E+00  0.00000000E+00  0.00000000E+00
  0.00000000E+00  0.00000000E+00  0.00000000E+00
  0.00000000E+00  0.00000000E+00  0.00000000E+00
  0.00000000E+00  0.00000000E+00  0.00000000E+00
  0.00000000E+00  0.00000000E+00  0.00000000E+00
  0.00000000E+00  0.00000000E+00  0.00000000E+00
  0.00000000E+00  0.00000000E+00  0.00000000E+00
  0.00000000E+00  0.00000000E+00  0.00000000E+00
  0.00000000E+00  0.00000000E+00  0.00000000E+00
  0.00000000E+00  0.00000000E+00  0.00000000E+00
  0.00000000E+00  0.00000000E+00  0.00000000E+00
  0.00000000E+00  0.00000000E+00  0.00000000E+00
  0.00000000E+00  0.00000000E+00  0.00000000E+00
  0.00000000E+00  0.00000000E+00  0.00000000E+00
  0.00000000E+00  0.00000000E+00  0.00000000E+00
  0.00000000E+00  0.00000000E+00  0.00000000E+00
  0.00000000E+00  0.00000000E+00  0.00000000E+00
  0.00000000E+00  0.00000000E+00  0.00000000E+00
  0.00000000E+00  0.00000000E+00  0.00000000E+00
  0.00000000E+00  0.00000000E+00  0.00000000E+00
  0.00000000E+00  0.00000000E+00  0.00000000E+00
  0.00000000E+00  0.00000000E+00  0.00000000E+00
  0.00000000E+00  0.00000000E+00  0.00000000E+00
  0.00000000E+00  0.00000000E+00  0.00000000E+00
  0.00000000E+00  0.00000000E+00  0.00000000E+00
  0.00000000E+00  0.00000000E+00  0.00000000E+00
  0.00000000E+00  0.00000000E+00  0.00000000E+00
  0.00000000E+00  0.00000000E+00  0.00000000E+00
  0.00000000E+00  0.00000000E+00  0.00000000E+00
  0.00000000E+00  0.00000000E+00  0.00000000E+00
  0.00000000E+00  0.00000000E+00  0.00000000E+00
  0.00000000E+00  0.00000000E+00  0.00000000E+00
  0.00000000E+00  0.00000000E+00  0.00000000E+00
  0.00000000E+00  0.00000000E+00  0.00000000E+00
  0.00000000E+00  0.00000000E+00  0.00000000E+00
  0.00000000E+00  0.00000000E+00  0.00000000E+00
  0.00000000E+00  0.00000000E+00  0.00000000E+00
  0.00000000E+00  0.00000000E+00  0.00000000E+00
  0.00000000E+00  0.00000000E+00  0.00000000E+00
  0.00000000E+00  0.00000000E+00  0.00000000E+00
  0.00000000E+00  0.00000000E+00  0.00000000E+00
  0.00000000E+00  0.00000000E+00  0.00000000E+00
  0.00000000E+00  0.00000000E+00  0.00000000E+00
  0.00000000E+00  0.00000000E+00  0.00000000E+00
  0.00000000E+00  0.00000000E+00  0.00000000E+00
  0.00000000E+00  0.00000000E+00  0.00000000E+00
  0.00000000E+00  0.00000000E+00  0.00000000E+00
  0.00000000E+00  0.00000000E+00  0.00000000E+00
  0.00000000E+00  0.00000000E+00  0.00000000E+00
  0.00000000E+00  0.00000000E+00  0.00000000E+00
  0.00000000E+00  0.00000000E+00  0.00000000E+00
  0.00000000E+00  0.00000000E+00  0.00000000E+00
  0.00000000E+00  0.00000000E+00  0.00000000E+00
  0.00000000E+00  0.00000000E+00  0.00000000E+00
  0.00000000E+00  0.00000000E+00  0.00000000E+00
  0.00000000E+00  0.00000000E+00  0.00000000E+00
  0.00000000E+00  0.00000000E+00  0.00000000E+00
  0.00000000E+00  0.00000000E+00  0.00000000E+00
  0.00000000E+00  0.00000000E+00  0.00000000E+00
  0.00000000E+00  0.00000000E+00  0.00000000E+00
  0.00000000E+00  0.00000000E+00  0.00000000E+00
  0.00000000E+00  0.00000000E+00  0.00000000E+00
  0.00000000E+00  0.00000000E+00  0.00000000E+00
  0.00000000E+00  0.00000000E+00  0.00000000E+00
  0.00000000E+00  0.00000000E+00  0.00000000E+00
  0.00000000E+00  0.00000000E+00  0.00000000E+00
  0.00000000E+00  0.00000000E+00  0.00000000E+00
  0.00000000E+00  0.00000000E+00  0.00000000E+00
  0.00000000E+00  0.00000000E+00  0.00000000E+00
  0.00000000E+00  0.00000000E+00  0.00000000E+00
  0.00000000E+00  0.00000000E+00  0.00000000E+00
  0.00000000E+00  0.00000000E+00  0.00000000E+00
  0.00000000E+00  0.00000000E+00  0.00000000E+00
  0.00000000E+00  0.00000000E+00  0.00000000E+00
  0.00000000E+00  0.00000000E+00  0.00000000E+00
  0.00000000E+00  0.00000000E+00  0.00000000E+00
  0.00000000E+00  0.00000000E+00  0.00000000E+00
  0.00000000E+00  0.00000000E+00  0.00000000E+00
  0.00000000E+00  0.00000000E+00  0.00000000E+00
