TEM = MoSiN
ENCUT = 600
ISTART = 0
ICHARG = 11
ISMEAR = 0
SIGMA = 0.02
NSW=0
#ISIF=2
IBRION=-1
ISPIN=2
PREC=Accurate
LREAL=Auto
EDIFF = 1E-5
EDIFFG = -0.01
NELM = 100
LORBIT = 11
NEDOS= 3001

LWAVE = .FALSE. 
LCHARG = .TRUE.
AMIN = 0.01
#ALGO = Normal
