k-points along high symmetry lines
40 !40 intersections
Line-mode
rec
0 0 0 !GM
0 0.5 0   !X
