CONTCAR1                                
   1.00000000000000     
     5.0399999619000004    0.0000000000000000    0.0000000000000000
     0.0000000000000000   33.0000000000000000    0.0000000000000000
     0.0000000000000000    0.0000000000000000   23.0000000000000000
   N    Si   Mo
    52    26    13
Direct
  0.1953133023831376  0.1755558054269921  0.5582217506690735
  0.1952998970528241  0.1755587164197917  0.4416663842577093
  0.1580815213349868  0.2663374625030749  0.5532719261999575
  0.1580737224612517  0.2663377932016651  0.4466252226980197
  0.3267568708504186  0.2241238273344173  0.3466650203264069
  0.3267964560928716  0.2241211310083981  0.6532305469513070
  0.6640264617567876  0.2222141292288550  0.5545191871219615
  0.6640158924229566  0.2222160524642477  0.4453753207648743
  0.1559689898841597  0.3555746196839129  0.5547258249213516
  0.1559600987055383  0.3555736316735813  0.4451667284542503
  0.3252410088948900  0.3117929554746773  0.3478312770530536
  0.3252902907185836  0.3117938764473095  0.6520632332171868
  0.6593405769134175  0.3114233618333132  0.5544715781395078
  0.6593293028963058  0.3114228940883726  0.4454241287595913
  0.1562388274880305  0.4437817829686612  0.5548847707733831
  0.1562260672913107  0.4437816885153306  0.4450047102768278
  0.3248191484323453  0.3997609749583422  0.3469179394060404
  0.3248647798141497  0.3997610859135281  0.6529783318403317
  0.6557319226949637  0.3996561481630610  0.5547304610044410
  0.6557219015035907  0.3996559651776171  0.4451630430883930
  0.1558803632312755  0.5320008532428319  0.5547108152918804
  0.1558700263005545  0.5320001621780014  0.4451737292996930
  0.3247247376847230  0.4878138119780944  0.3469262191320949
  0.3247587201554201  0.4878152919805963  0.6529593376940721
  0.6556808120877373  0.4879077645622975  0.5547190831874084
  0.6556692459831552  0.4879075061156035  0.4451671915509524
  0.1579773059751647  0.6212436378405164  0.5532666335532355
  0.1579760206591589  0.6212443024486741  0.4466241134593325
  0.3250472769137298  0.5757847616684343  0.3478456668545346
  0.3250627110204030  0.5757857315103787  0.6520478409918844
  0.6592203098301486  0.5761510392212300  0.5544627529413925
  0.6592200749528111  0.5761523841774197  0.4454282112926329
  0.1952260517065680  0.7120300627457197  0.5582215356518334
  0.1952263574715729  0.7120287025462042  0.4416673956454046
  0.3266074604504594  0.6634623088391073  0.3466608418746250
  0.3266035983458317  0.6634630175338958  0.6532276648537302
  0.6639205835369894  0.6653608166537576  0.5545151324597428
  0.6639206503429321  0.6653608804938705  0.4453753191626306
  0.8207315858461829  0.1786494866497915  0.3443539395758378
  0.8207750696859691  0.1786451741045844  0.6555366239791495
  0.8242773764328792  0.2674461121342057  0.3482022668129306
  0.8243303006320069  0.2674442380010791  0.6516949798214711
  0.8246992467019111  0.3556424072667427  0.3471258562629738
  0.8247445552346799  0.3556416306536217  0.6527677136547109
  0.8246213684368712  0.4437838004134333  0.3469691829070797
  0.8246635174806564  0.4437851271910243  0.6529215678881298
  0.8245249356372520  0.5319289699710111  0.3471449121957804
  0.8245613128249765  0.5319297273605358  0.6527437598503180
  0.8241247909829256  0.6201284363589142  0.3482065503950910
  0.8241347342815536  0.6201277106814851  0.6516830724555046
  0.8205636175776773  0.7089301313833654  0.3443600539017926
  0.8205578207038695  0.7089286307034537  0.6555295966867356
  0.1164690014520589  0.1858701512914713  0.6279022413776956
  0.1164336437838671  0.1858708884421912  0.3719862703823515
  0.1552029871932752  0.2680174013996161  0.6303919353401369
  0.1551370323217730  0.2680176128284038  0.3695063350001431
  0.6588228986274215  0.2206129216997874  0.6328617481784958
  0.6587775356208038  0.2206162242826205  0.3670325852237404
  0.1560952909988913  0.3557989112220810  0.6308443801181254
  0.1560403336493533  0.3557973103768602  0.3690487193674972
  0.6575473800179611  0.3112536676091104  0.6307643570390664
  0.6574836748974860  0.3112553479209152  0.3691322465702617
  0.1562143966165572  0.4437834643651614  0.6309981042906054
  0.1561715127827324  0.4437833386290537  0.3688935081159874
  0.6563209346240286  0.3996750708565424  0.6308780839998354
  0.6562730866167563  0.3996742771285459  0.3690173229255638
  0.1558975508685604  0.5317776032328630  0.6308195091320471
  0.1558698782989101  0.5317752789419450  0.3690643833784654
  0.6562179844050365  0.4878861240296164  0.6308606777954726
  0.6561770055932501  0.4878857099251987  0.3690255970923024
  0.1550295815316778  0.6195731281428861  0.6303859916305804
  0.1550169028744847  0.6195742423269480  0.3695035542002841
  0.6572813436365725  0.5763174246282784  0.6307519610852264
  0.6572719506252406  0.5763189699118055  0.3691408751159405
  0.1162532694849936  0.7017119064620321  0.6278924513442035
  0.1162582763526737  0.7017147767534325  0.3719896849157320
  0.6586323502096409  0.6669575367044549  0.6328575701827815
  0.6586259729645663  0.6669595145137887  0.3670319470321594
  0.9882152380612849  0.2202641290272776  0.4999463318347268
  0.4620835183832776  0.1828122668188757  0.4999442770263814
  0.9934681079052660  0.3113921645421657  0.4999478410609489
  0.5004177900440474  0.2672361934454593  0.4999478744221530
  0.9918410235376369  0.3997230162137873  0.4999476748994749
  0.4915892318257191  0.3553576907192245  0.4999479166872358
  0.9917983875137752  0.4878447662504538  0.4999454674696545
  0.4909809201093003  0.4437804435236219  0.4999466260350844
  0.9933749933618347  0.5761864980482058  0.4999458378333793
  0.4915094674380653  0.5322121026526082  0.4999450601893932
  0.9881245385732700  0.6673177321087264  0.4999446846026860
  0.5003144153053286  0.6203408326164068  0.4999469375021807
  0.4619925631922146  0.7047659733126649  0.4999445213937052
 
  0.00000000E+00  0.00000000E+00  0.00000000E+00
  0.00000000E+00  0.00000000E+00  0.00000000E+00
  0.00000000E+00  0.00000000E+00  0.00000000E+00
  0.00000000E+00  0.00000000E+00  0.00000000E+00
  0.00000000E+00  0.00000000E+00  0.00000000E+00
  0.00000000E+00  0.00000000E+00  0.00000000E+00
  0.00000000E+00  0.00000000E+00  0.00000000E+00
  0.00000000E+00  0.00000000E+00  0.00000000E+00
  0.00000000E+00  0.00000000E+00  0.00000000E+00
  0.00000000E+00  0.00000000E+00  0.00000000E+00
  0.00000000E+00  0.00000000E+00  0.00000000E+00
  0.00000000E+00  0.00000000E+00  0.00000000E+00
  0.00000000E+00  0.00000000E+00  0.00000000E+00
  0.00000000E+00  0.00000000E+00  0.00000000E+00
  0.00000000E+00  0.00000000E+00  0.00000000E+00
  0.00000000E+00  0.00000000E+00  0.00000000E+00
  0.00000000E+00  0.00000000E+00  0.00000000E+00
  0.00000000E+00  0.00000000E+00  0.00000000E+00
  0.00000000E+00  0.00000000E+00  0.00000000E+00
  0.00000000E+00  0.00000000E+00  0.00000000E+00
  0.00000000E+00  0.00000000E+00  0.00000000E+00
  0.00000000E+00  0.00000000E+00  0.00000000E+00
  0.00000000E+00  0.00000000E+00  0.00000000E+00
  0.00000000E+00  0.00000000E+00  0.00000000E+00
  0.00000000E+00  0.00000000E+00  0.00000000E+00
  0.00000000E+00  0.00000000E+00  0.00000000E+00
  0.00000000E+00  0.00000000E+00  0.00000000E+00
  0.00000000E+00  0.00000000E+00  0.00000000E+00
  0.00000000E+00  0.00000000E+00  0.00000000E+00
  0.00000000E+00  0.00000000E+00  0.00000000E+00
  0.00000000E+00  0.00000000E+00  0.00000000E+00
  0.00000000E+00  0.00000000E+00  0.00000000E+00
  0.00000000E+00  0.00000000E+00  0.00000000E+00
  0.00000000E+00  0.00000000E+00  0.00000000E+00
  0.00000000E+00  0.00000000E+00  0.00000000E+00
  0.00000000E+00  0.00000000E+00  0.00000000E+00
  0.00000000E+00  0.00000000E+00  0.00000000E+00
  0.00000000E+00  0.00000000E+00  0.00000000E+00
  0.00000000E+00  0.00000000E+00  0.00000000E+00
  0.00000000E+00  0.00000000E+00  0.00000000E+00
  0.00000000E+00  0.00000000E+00  0.00000000E+00
  0.00000000E+00  0.00000000E+00  0.00000000E+00
  0.00000000E+00  0.00000000E+00  0.00000000E+00
  0.00000000E+00  0.00000000E+00  0.00000000E+00
  0.00000000E+00  0.00000000E+00  0.00000000E+00
  0.00000000E+00  0.00000000E+00  0.00000000E+00
  0.00000000E+00  0.00000000E+00  0.00000000E+00
  0.00000000E+00  0.00000000E+00  0.00000000E+00
  0.00000000E+00  0.00000000E+00  0.00000000E+00
  0.00000000E+00  0.00000000E+00  0.00000000E+00
  0.00000000E+00  0.00000000E+00  0.00000000E+00
  0.00000000E+00  0.00000000E+00  0.00000000E+00
  0.00000000E+00  0.00000000E+00  0.00000000E+00
  0.00000000E+00  0.00000000E+00  0.00000000E+00
  0.00000000E+00  0.00000000E+00  0.00000000E+00
  0.00000000E+00  0.00000000E+00  0.00000000E+00
  0.00000000E+00  0.00000000E+00  0.00000000E+00
  0.00000000E+00  0.00000000E+00  0.00000000E+00
  0.00000000E+00  0.00000000E+00  0.00000000E+00
  0.00000000E+00  0.00000000E+00  0.00000000E+00
  0.00000000E+00  0.00000000E+00  0.00000000E+00
  0.00000000E+00  0.00000000E+00  0.00000000E+00
  0.00000000E+00  0.00000000E+00  0.00000000E+00
  0.00000000E+00  0.00000000E+00  0.00000000E+00
  0.00000000E+00  0.00000000E+00  0.00000000E+00
  0.00000000E+00  0.00000000E+00  0.00000000E+00
  0.00000000E+00  0.00000000E+00  0.00000000E+00
  0.00000000E+00  0.00000000E+00  0.00000000E+00
  0.00000000E+00  0.00000000E+00  0.00000000E+00
  0.00000000E+00  0.00000000E+00  0.00000000E+00
  0.00000000E+00  0.00000000E+00  0.00000000E+00
  0.00000000E+00  0.00000000E+00  0.00000000E+00
  0.00000000E+00  0.00000000E+00  0.00000000E+00
  0.00000000E+00  0.00000000E+00  0.00000000E+00
  0.00000000E+00  0.00000000E+00  0.00000000E+00
  0.00000000E+00  0.00000000E+00  0.00000000E+00
  0.00000000E+00  0.00000000E+00  0.00000000E+00
  0.00000000E+00  0.00000000E+00  0.00000000E+00
  0.00000000E+00  0.00000000E+00  0.00000000E+00
  0.00000000E+00  0.00000000E+00  0.00000000E+00
  0.00000000E+00  0.00000000E+00  0.00000000E+00
  0.00000000E+00  0.00000000E+00  0.00000000E+00
  0.00000000E+00  0.00000000E+00  0.00000000E+00
  0.00000000E+00  0.00000000E+00  0.00000000E+00
  0.00000000E+00  0.00000000E+00  0.00000000E+00
  0.00000000E+00  0.00000000E+00  0.00000000E+00
  0.00000000E+00  0.00000000E+00  0.00000000E+00
  0.00000000E+00  0.00000000E+00  0.00000000E+00
  0.00000000E+00  0.00000000E+00  0.00000000E+00
  0.00000000E+00  0.00000000E+00  0.00000000E+00
  0.00000000E+00  0.00000000E+00  0.00000000E+00
